
    -----------------------------------------------------------------------
          Psi4: An Open-Source Ab Initio Electronic Structure Package
                               Psi4 1.11a1.dev42 

                         Git: Rev {master} 144882d 


    D. G. A. Smith, L. A. Burns, A. C. Simmonett, R. M. Parrish,
    M. C. Schieber, R. Galvelis, P. Kraus, H. Kruse, R. Di Remigio,
    A. Alenaizan, A. M. James, S. Lehtola, J. P. Misiewicz, M. Scheurer,
    R. A. Shaw, J. B. Schriber, Y. Xie, Z. L. Glick, D. A. Sirianni,
    J. S. O'Brien, J. M. Waldrop, A. Kumar, E. G. Hohenstein,
    B. P. Pritchard, B. R. Brooks, H. F. Schaefer III, A. Yu. Sokolov,
    K. Patkowski, A. E. DePrince III, U. Bozkaya, R. A. King,
    F. A. Evangelista, J. M. Turney, T. D. Crawford, C. D. Sherrill,
    J. Chem. Phys. 152(18) 184108 (2020). https://doi.org/10.1063/5.0006002

                            Additional Code Authors
    E. T. Seidl, C. L. Janssen, E. F. Valeev, M. L. Leininger,
    J. F. Gonthier, R. M. Richard, H. R. McAlexander, M. Saitow, X. Wang,
    P. Verma, M. H. Lechner, A. Jiang, S. Behnle, A. G. Heide,
    M. F. Herbst, D. L. Poole, T. Győri, E. C. Mitchell, J. P. Pederson,
    and A. M. Wallace

             Previous Authors, Complete List of Code Contributors,
                       and Citations for Specific Modules
    https://github.com/psi4/psi4/blob/master/codemeta.json
    https://github.com/psi4/psi4/graphs/contributors
    https://psicode.org/psi4manual/master/introduction.html#citing-psifour

    -----------------------------------------------------------------------


    Psi4 started on: Monday, 15 June 2026 06:35AM

    Process ID: 215698
    Host:       kichot
    PSIDATADIR: /opt/psi4/share/psi4
    Memory:     500.0 MiB
    Threads:    1
    Addons:     a̶d̶c̶c̶, a̶m̶b̶i̶t̶, b̶s̶e̶, c̶c̶t̶3̶, c̶f̶o̶u̶r̶, c̶h̶e̶m̶p̶s̶2̶, c̶p̶p̶e̶, d̶d̶x̶,
                d̶f̶t̶d̶3̶, d̶f̶t̶d̶4̶, d̶k̶h̶, e̶c̶p̶i̶n̶t̶, e̶i̶n̶s̶u̶m̶s̶, f̶o̶r̶t̶e̶,
                g̶a̶u̶x̶c̶, g̶c̶p̶, g̶d̶m̶a̶, g̶e̶o̶m̶e̶t̶r̶i̶c̶, g̶p̶u̶_̶d̶f̶c̶c̶,
                i̶n̶t̶e̶g̶r̶a̶t̶o̶r̶x̶x̶, i̶p̶i̶, l̶i̶b̶e̶f̶p̶, m̶d̶i̶, m̶p̶2̶d̶, m̶r̶c̶c̶,
                o̶o̶o̶, o̶p̶e̶n̶f̶e̶r̶m̶i̶o̶n̶p̶s̶i̶4̶, p̶c̶m̶s̶o̶l̶v̶e̶r̶,
                p̶s̶i̶4̶f̶o̶c̶k̶c̶i̶, p̶s̶i̶x̶a̶s̶, p̶y̶e̶i̶n̶s̶u̶m̶s̶, r̶e̶s̶p̶, s̶i̶m̶i̶n̶t̶,
                s̶n̶s̶m̶p̶2̶, v̶2̶r̶d̶m̶_̶c̶a̶s̶s̶c̶f̶

  Memory set to   1.863 GiB by Python driver.

Scratch directory: /scratch/lukasz/psi4/

  //>>>>>>>>>>>>>>>>>>>>>>>>>>>>>>>>>>>//
  //   ManyBody Setup: N-Body Levels 2 //
  //<<<<<<<<<<<<<<<<<<<<<<<<<<<<<<<<<<<//

    Model chemistry "(auto)" (§A):          3
        Number of 1-body computations:      2 (nocp: 0, cp: 2, vmfc_compute: 0)
        Number of 2-body computations:      1 (nocp: 0, cp: 1, vmfc_compute: 0)

    -----------------------------------------------------------------------
          Psi4: An Open-Source Ab Initio Electronic Structure Package
                               Psi4 1.11a1.dev42 

                         Git: Rev {master} 144882d 


    D. G. A. Smith, L. A. Burns, A. C. Simmonett, R. M. Parrish,
    M. C. Schieber, R. Galvelis, P. Kraus, H. Kruse, R. Di Remigio,
    A. Alenaizan, A. M. James, S. Lehtola, J. P. Misiewicz, M. Scheurer,
    R. A. Shaw, J. B. Schriber, Y. Xie, Z. L. Glick, D. A. Sirianni,
    J. S. O'Brien, J. M. Waldrop, A. Kumar, E. G. Hohenstein,
    B. P. Pritchard, B. R. Brooks, H. F. Schaefer III, A. Yu. Sokolov,
    K. Patkowski, A. E. DePrince III, U. Bozkaya, R. A. King,
    F. A. Evangelista, J. M. Turney, T. D. Crawford, C. D. Sherrill,
    J. Chem. Phys. 152(18) 184108 (2020). https://doi.org/10.1063/5.0006002

                            Additional Code Authors
    E. T. Seidl, C. L. Janssen, E. F. Valeev, M. L. Leininger,
    J. F. Gonthier, R. M. Richard, H. R. McAlexander, M. Saitow, X. Wang,
    P. Verma, M. H. Lechner, A. Jiang, S. Behnle, A. G. Heide,
    M. F. Herbst, D. L. Poole, T. Győri, E. C. Mitchell, J. P. Pederson,
    and A. M. Wallace

             Previous Authors, Complete List of Code Contributors,
                       and Citations for Specific Modules
    https://github.com/psi4/psi4/blob/master/codemeta.json
    https://github.com/psi4/psi4/graphs/contributors
    https://psicode.org/psi4manual/master/introduction.html#citing-psifour

    -----------------------------------------------------------------------


    Psi4 started on: Monday, 15 June 2026 06:35AM

    Process ID: 215698
    Host:       kichot
    PSIDATADIR: /opt/psi4/share/psi4
    Memory:     1.9 GiB
    Threads:    1
    Addons:     a̶d̶c̶c̶, a̶m̶b̶i̶t̶, b̶s̶e̶, c̶c̶t̶3̶, c̶f̶o̶u̶r̶, c̶h̶e̶m̶p̶s̶2̶, c̶p̶p̶e̶, d̶d̶x̶,
                d̶f̶t̶d̶3̶, d̶f̶t̶d̶4̶, d̶k̶h̶, e̶c̶p̶i̶n̶t̶, e̶i̶n̶s̶u̶m̶s̶, f̶o̶r̶t̶e̶,
                g̶a̶u̶x̶c̶, g̶c̶p̶, g̶d̶m̶a̶, g̶e̶o̶m̶e̶t̶r̶i̶c̶, g̶p̶u̶_̶d̶f̶c̶c̶,
                i̶n̶t̶e̶g̶r̶a̶t̶o̶r̶x̶x̶, i̶p̶i̶, l̶i̶b̶e̶f̶p̶, m̶d̶i̶, m̶p̶2̶d̶, m̶r̶c̶c̶,
                o̶o̶o̶, o̶p̶e̶n̶f̶e̶r̶m̶i̶o̶n̶p̶s̶i̶4̶, p̶c̶m̶s̶o̶l̶v̶e̶r̶,
                p̶s̶i̶4̶f̶o̶c̶k̶c̶i̶, p̶s̶i̶x̶a̶s̶, p̶y̶e̶i̶n̶s̶u̶m̶s̶, r̶e̶s̶p̶, s̶i̶m̶i̶n̶t̶,
                s̶n̶s̶m̶p̶2̶, v̶2̶r̶d̶m̶_̶c̶a̶s̶s̶c̶f̶

  ==> Input QCSchema <==

--------------------------------------------------------------------------
{'driver': 'energy',
 'extras': {'psiapi': True, 'wfn_qcvars_only': True},
 'id': None,
 'keywords': {'function_kwargs': {}},
 'model': {'basis': 'aug-cc-pvdz', 'method': 'scf'},
 'molecule': {'atom_labels': ['', ''],
              'atomic_numbers': [2, 10],
              'extras': {},
              'fix_com': True,
              'fix_orientation': True,
              'fragment_charges': [0.0, 0.0],
              'fragment_multiplicities': [1, 1],
              'fragments': [[0], [1]],
              'geometry': [0.0, 0.0, -4.7235050799945, 0.0, 0.0, 0.9456732963789],
              'mass_numbers': [4, 20],
              'masses': [4.00260325413, 19.9924401762],
              'molecular_charge': 0.0,
              'molecular_multiplicity': 1,
              'name': 'He-Ne ([1],[0])',
              'provenance': {'creator': 'QCElemental',
                             'routine': 'qcelemental.molparse.from_schema',
                             'version': '0.29.0'},
              'real': [False, True],
              'schema_name': 'qcschema_molecule',
              'schema_version': 2,
              'symbols': ['He', 'Ne'],
              'validated': True},
 'protocols': {'stdout': True},
 'provenance': {'creator': 'QCElemental', 'routine': 'qcelemental.models.results', 'version': '0.29.0'},
 'schema_name': 'qcschema_input',
 'schema_version': 1}
--------------------------------------------------------------------------

Scratch directory: /scratch/lukasz/psi4/
   => Libint2 <=

    Primary   basis highest AM E, G, H:  5, 4, 3
    Auxiliary basis highest AM E, G, H:  6, 5, 4
    Onebody   basis highest AM E, G, H:  6, 5, 4
    Solid Harmonics ordering:            Gaussian

*** tstart() called on kichot
*** at Mon Jun 15 06:35:38 2026

   => Loading Basis Set <=

    Name: AUG-CC-PVDZ
    Role: ORBITAL
    Keyword: BASIS
    atoms 1 entry HE         line    54 file /opt/psi4/share/psi4/basis/aug-cc-pvdz.gbs 
    atoms 2 entry NE         line   326 file /opt/psi4/share/psi4/basis/aug-cc-pvdz.gbs 


         ---------------------------------------------------------
                                   SCF
               by Justin Turney, Rob Parrish, Andy Simmonett
                          and Daniel G. A. Smith
                              RHF Reference
                        1 Threads,   1907 MiB Core
         ---------------------------------------------------------

  ==> Geometry <==

    Molecular point group: c2v
    Full point group: C_inf_v

    Geometry (in Bohr), charge = 0, multiplicity = 1:

       Center              X                  Y                   Z               Mass       
    ------------   -----------------  -----------------  -----------------  -----------------
      Gh(HE)          0.000000000000     0.000000000000    -4.723505079995     4.002603254130
         NE           0.000000000000     0.000000000000     0.945673296379    19.992440176200

  Running in c2v symmetry.

  Rotational constants: A = ************  B =      0.56165  C =      0.56165 [cm^-1]
  Rotational constants: A = ************  B =  16837.89826  C =  16837.89826 [MHz]
  Nuclear repulsion =    0.000000000000000

  Charge       = 0
  Multiplicity = 1
  Electrons    = 10
  Nalpha       = 5
  Nbeta        = 5

  ==> Algorithm <==

  SCF Algorithm Type is DF.
  DIIS enabled.
  MOM disabled.
  Fractional occupation disabled.
  Guess Type is SAD.
  Energy threshold   = 1.00e-06
  Density threshold  = 1.00e-06
  Integral threshold = 1.00e-12

  ==> Primary Basis <==

  Basis Set: AUG-CC-PVDZ
    Blend: AUG-CC-PVDZ
    Number of shells: 14
    Number of basis functions: 32
    Number of Cartesian functions: 34
    Spherical Harmonics?: true
    Max angular momentum: 2

   => Loading Basis Set <=

    Name: (AUG-CC-PVDZ AUX)
    Role: JKFIT
    Keyword: DF_BASIS_SCF
    atoms 1 entry HE         line    34 file /opt/psi4/share/psi4/basis/def2-universal-jkfit.gbs 
    atoms 2 entry NE         line   386 file /opt/psi4/share/psi4/basis/aug-cc-pvdz-jkfit.gbs 

  ==> Integral Setup <==

  DFHelper Memory: AOs need 0.001 GiB; user supplied 1.397 GiB. 
  SCF_SUBTYPE=INCORE selected. In-core MEM_DF algorithm will be used.
  Using in-core AOs.

  ==> MemDFJK: Density-Fitted J/K Matrices <==

    J tasked:                   Yes
    K tasked:                   Yes
    wK tasked:                   No
    OpenMP threads:               1
    Memory [MiB]:              1430
    Algorithm:                 Core
    Schwarz Cutoff:           1E-12
    Mask sparsity (%):       0.0000
    Fitting Condition:        1E-10

   => Auxiliary Basis Set <=

  Basis Set: (AUG-CC-PVDZ AUX)
    Blend: AUG-CC-PVDZ-JKFIT + DEF2-UNIVERSAL-JKFIT
    Number of shells: 37
    Number of basis functions: 109
    Number of Cartesian functions: 126
    Spherical Harmonics?: true
    Max angular momentum: 3

  Minimum eigenvalue in the overlap matrix is 8.8674905081E-02.
  Reciprocal condition number of the overlap matrix is 3.7254979058E-02.
    Using symmetric orthogonalization.

  ==> Pre-Iterations <==

  SCF Guess: Superposition of Atomic Densities via on-the-fly atomic UHF (no occupation information).

   -------------------------
    Irrep   Nso     Nmo    
   -------------------------
     A1        16      16 
     A2         2       2 
     B1         7       7 
     B2         7       7 
   -------------------------
    Total      32      32
   -------------------------

  ==> Iterations <==

                           Total Energy        Delta E     RMS |[F,P]|

   @DF-RHF iter SAD:  -128.49636228134375   -1.28496e+02   0.00000e+00 
   @DF-RHF iter   1:  -128.49637801181851   -1.57305e-05   8.22130e-05 DIIS
   @DF-RHF iter   2:  -128.49637857241825   -5.60600e-07   3.97995e-05 DIIS
   @DF-RHF iter   3:  -128.49637871006075   -1.37643e-07   1.45734e-06 DIIS
   @DF-RHF iter   4:  -128.49637871057439   -5.13637e-10   1.21836e-07 DIIS
  Energy and wave function converged.


  ==> Post-Iterations <==

    Orbital Energies [Eh]
    ---------------------

    Doubly Occupied:                                                      

       1A1   -32.794920     2A1    -1.940391     3A1    -0.853025  
       1B1    -0.853008     1B2    -0.853008  

    Virtual:                                                              

       4A1     0.103312     5A1     0.287556     2B2     0.291659  
       2B1     0.291659     6A1     0.333254     3B1     0.609385  
       3B2     0.609385     7A1     0.647551     8A1     0.719157  
       9A1     1.757861     1A2     1.757861     4B2     1.758118  
       4B1     1.758118    10A1     1.768244     5B2     1.963708  
       5B1     1.963708    11A1     1.998994    12A1     2.782775  
       6B1     3.691520     6B2     3.691520    13A1     3.748607  
      14A1     4.548888    15A1     6.373100     2A2     6.373100  
       7B1     6.373251     7B2     6.373251    16A1     6.380972  

    Final Occupation by Irrep:
             A1    A2    B1    B2 
    DOCC [     3,    0,    1,    1 ]
    NA   [     3,    0,    1,    1 ]
    NB   [     3,    0,    1,    1 ]

  @DF-RHF Final Energy:  -128.49637871057439

   => Energetics <=

    Nuclear Repulsion Energy =              0.0000000000000000
    One-Electron Energy =                -182.4040507031053266
    Two-Electron Energy =                  53.9076719925309504
    Total Energy =                       -128.4963787105743904

Computation Completed


Properties will be evaluated at   0.000000,   0.000000,   0.000000 [a0]

Properties computed using the SCF density matrix


 Multipole Moments:

 ------------------------------------------------------------------------------------
     Multipole            Electronic (a.u.)      Nuclear  (a.u.)        Total (a.u.)
 ------------------------------------------------------------------------------------

 L = 1.  Multiply by 2.5417464519 to convert [e a0] to [Debye]
 Dipole X            :          0.0000000            0.0000000            0.0000000
 Dipole Y            :          0.0000000            0.0000000            0.0000000
 Dipole Z            :         -9.4563182            9.4567330            0.0004148
 Magnitude           :                                                    0.0004148

 ------------------------------------------------------------------------------------

*** tstop() called on kichot at Mon Jun 15 06:35:38 2026
Module time:
	user time   =       0.16 seconds =       0.00 minutes
	system time =       0.01 seconds =       0.00 minutes
	total time  =          0 seconds =       0.00 minutes
Total time:
	user time   =       0.16 seconds =       0.00 minutes
	system time =       0.01 seconds =       0.00 minutes
	total time  =          0 seconds =       0.00 minutes

    Psi4 stopped on: Monday, 15 June 2026 06:35AM
    Psi4 wall time for execution: 0:00:00.24


    -----------------------------------------------------------------------
          Psi4: An Open-Source Ab Initio Electronic Structure Package
                               Psi4 1.11a1.dev42 

                         Git: Rev {master} 144882d 


    D. G. A. Smith, L. A. Burns, A. C. Simmonett, R. M. Parrish,
    M. C. Schieber, R. Galvelis, P. Kraus, H. Kruse, R. Di Remigio,
    A. Alenaizan, A. M. James, S. Lehtola, J. P. Misiewicz, M. Scheurer,
    R. A. Shaw, J. B. Schriber, Y. Xie, Z. L. Glick, D. A. Sirianni,
    J. S. O'Brien, J. M. Waldrop, A. Kumar, E. G. Hohenstein,
    B. P. Pritchard, B. R. Brooks, H. F. Schaefer III, A. Yu. Sokolov,
    K. Patkowski, A. E. DePrince III, U. Bozkaya, R. A. King,
    F. A. Evangelista, J. M. Turney, T. D. Crawford, C. D. Sherrill,
    J. Chem. Phys. 152(18) 184108 (2020). https://doi.org/10.1063/5.0006002

                            Additional Code Authors
    E. T. Seidl, C. L. Janssen, E. F. Valeev, M. L. Leininger,
    J. F. Gonthier, R. M. Richard, H. R. McAlexander, M. Saitow, X. Wang,
    P. Verma, M. H. Lechner, A. Jiang, S. Behnle, A. G. Heide,
    M. F. Herbst, D. L. Poole, T. Győri, E. C. Mitchell, J. P. Pederson,
    and A. M. Wallace

             Previous Authors, Complete List of Code Contributors,
                       and Citations for Specific Modules
    https://github.com/psi4/psi4/blob/master/codemeta.json
    https://github.com/psi4/psi4/graphs/contributors
    https://psicode.org/psi4manual/master/introduction.html#citing-psifour

    -----------------------------------------------------------------------


    Psi4 started on: Monday, 15 June 2026 06:35AM

    Process ID: 215698
    Host:       kichot
    PSIDATADIR: /opt/psi4/share/psi4
    Memory:     1.9 GiB
    Threads:    1
    Addons:     a̶d̶c̶c̶, a̶m̶b̶i̶t̶, b̶s̶e̶, c̶c̶t̶3̶, c̶f̶o̶u̶r̶, c̶h̶e̶m̶p̶s̶2̶, c̶p̶p̶e̶, d̶d̶x̶,
                d̶f̶t̶d̶3̶, d̶f̶t̶d̶4̶, d̶k̶h̶, e̶c̶p̶i̶n̶t̶, e̶i̶n̶s̶u̶m̶s̶, f̶o̶r̶t̶e̶,
                g̶a̶u̶x̶c̶, g̶c̶p̶, g̶d̶m̶a̶, g̶e̶o̶m̶e̶t̶r̶i̶c̶, g̶p̶u̶_̶d̶f̶c̶c̶,
                i̶n̶t̶e̶g̶r̶a̶t̶o̶r̶x̶x̶, i̶p̶i̶, l̶i̶b̶e̶f̶p̶, m̶d̶i̶, m̶p̶2̶d̶, m̶r̶c̶c̶,
                o̶o̶o̶, o̶p̶e̶n̶f̶e̶r̶m̶i̶o̶n̶p̶s̶i̶4̶, p̶c̶m̶s̶o̶l̶v̶e̶r̶,
                p̶s̶i̶4̶f̶o̶c̶k̶c̶i̶, p̶s̶i̶x̶a̶s̶, p̶y̶e̶i̶n̶s̶u̶m̶s̶, r̶e̶s̶p̶, s̶i̶m̶i̶n̶t̶,
                s̶n̶s̶m̶p̶2̶, v̶2̶r̶d̶m̶_̶c̶a̶s̶s̶c̶f̶

  ==> Input QCSchema <==

--------------------------------------------------------------------------
{'driver': 'energy',
 'extras': {'psiapi': True, 'wfn_qcvars_only': True},
 'id': None,
 'keywords': {'function_kwargs': {}},
 'model': {'basis': 'aug-cc-pvdz', 'method': 'scf'},
 'molecule': {'atom_labels': ['', ''],
              'atomic_numbers': [2, 10],
              'extras': {},
              'fix_com': True,
              'fix_orientation': True,
              'fragment_charges': [0.0, 0.0],
              'fragment_multiplicities': [1, 1],
              'fragments': [[0], [1]],
              'geometry': [0.0, 0.0, -4.7235050799945, 0.0, 0.0, 0.9456732963789],
              'mass_numbers': [4, 20],
              'masses': [4.00260325413, 19.9924401762],
              'molecular_charge': 0.0,
              'molecular_multiplicity': 1,
              'name': 'He-Ne ([0],[1])',
              'provenance': {'creator': 'QCElemental',
                             'routine': 'qcelemental.molparse.from_schema',
                             'version': '0.29.0'},
              'real': [True, False],
              'schema_name': 'qcschema_molecule',
              'schema_version': 2,
              'symbols': ['He', 'Ne'],
              'validated': True},
 'protocols': {'stdout': True},
 'provenance': {'creator': 'QCElemental', 'routine': 'qcelemental.models.results', 'version': '0.29.0'},
 'schema_name': 'qcschema_input',
 'schema_version': 1}
--------------------------------------------------------------------------

Scratch directory: /scratch/lukasz/psi4/
   => Libint2 <=

    Primary   basis highest AM E, G, H:  5, 4, 3
    Auxiliary basis highest AM E, G, H:  6, 5, 4
    Onebody   basis highest AM E, G, H:  6, 5, 4
    Solid Harmonics ordering:            Gaussian

*** tstart() called on kichot
*** at Mon Jun 15 06:35:39 2026

   => Loading Basis Set <=

    Name: AUG-CC-PVDZ
    Role: ORBITAL
    Keyword: BASIS
    atoms 1 entry HE         line    54 file /opt/psi4/share/psi4/basis/aug-cc-pvdz.gbs 
    atoms 2 entry NE         line   326 file /opt/psi4/share/psi4/basis/aug-cc-pvdz.gbs 


         ---------------------------------------------------------
                                   SCF
               by Justin Turney, Rob Parrish, Andy Simmonett
                          and Daniel G. A. Smith
                              RHF Reference
                        1 Threads,   1907 MiB Core
         ---------------------------------------------------------

  ==> Geometry <==

    Molecular point group: c2v
    Full point group: C_inf_v

    Geometry (in Bohr), charge = 0, multiplicity = 1:

       Center              X                  Y                   Z               Mass       
    ------------   -----------------  -----------------  -----------------  -----------------
         HE           0.000000000000     0.000000000000    -4.723505079995     4.002603254130
      Gh(NE)          0.000000000000     0.000000000000     0.945673296379    19.992440176200

  Running in c2v symmetry.

  Rotational constants: A = ************  B =      0.56165  C =      0.56165 [cm^-1]
  Rotational constants: A = ************  B =  16837.89826  C =  16837.89826 [MHz]
  Nuclear repulsion =    0.000000000000000

  Charge       = 0
  Multiplicity = 1
  Electrons    = 2
  Nalpha       = 1
  Nbeta        = 1

  ==> Algorithm <==

  SCF Algorithm Type is DF.
  DIIS enabled.
  MOM disabled.
  Fractional occupation disabled.
  Guess Type is SAD.
  Energy threshold   = 1.00e-06
  Density threshold  = 1.00e-06
  Integral threshold = 1.00e-12

  ==> Primary Basis <==

  Basis Set: AUG-CC-PVDZ
    Blend: AUG-CC-PVDZ
    Number of shells: 14
    Number of basis functions: 32
    Number of Cartesian functions: 34
    Spherical Harmonics?: true
    Max angular momentum: 2

   => Loading Basis Set <=

    Name: (AUG-CC-PVDZ AUX)
    Role: JKFIT
    Keyword: DF_BASIS_SCF
    atoms 1 entry HE         line    34 file /opt/psi4/share/psi4/basis/def2-universal-jkfit.gbs 
    atoms 2 entry NE         line   386 file /opt/psi4/share/psi4/basis/aug-cc-pvdz-jkfit.gbs 

  ==> Integral Setup <==

  DFHelper Memory: AOs need 0.001 GiB; user supplied 1.397 GiB. 
  SCF_SUBTYPE=INCORE selected. In-core MEM_DF algorithm will be used.
  Using in-core AOs.

  ==> MemDFJK: Density-Fitted J/K Matrices <==

    J tasked:                   Yes
    K tasked:                   Yes
    wK tasked:                   No
    OpenMP threads:               1
    Memory [MiB]:              1430
    Algorithm:                 Core
    Schwarz Cutoff:           1E-12
    Mask sparsity (%):       0.0000
    Fitting Condition:        1E-10

   => Auxiliary Basis Set <=

  Basis Set: (AUG-CC-PVDZ AUX)
    Blend: AUG-CC-PVDZ-JKFIT + DEF2-UNIVERSAL-JKFIT
    Number of shells: 37
    Number of basis functions: 109
    Number of Cartesian functions: 126
    Spherical Harmonics?: true
    Max angular momentum: 3

  Minimum eigenvalue in the overlap matrix is 8.8674905081E-02.
  Reciprocal condition number of the overlap matrix is 3.7254979058E-02.
    Using symmetric orthogonalization.

  ==> Pre-Iterations <==

  SCF Guess: Superposition of Atomic Densities via on-the-fly atomic UHF (no occupation information).

   -------------------------
    Irrep   Nso     Nmo    
   -------------------------
     A1        16      16 
     A2         2       2 
     B1         7       7 
     B2         7       7 
   -------------------------
    Total      32      32
   -------------------------

  ==> Iterations <==

                           Total Energy        Delta E     RMS |[F,P]|

   @DF-RHF iter SAD:    -2.85573198583706   -2.85573e+00   0.00000e+00 
   @DF-RHF iter   1:    -2.85574035332383   -8.36749e-06   2.58180e-05 DIIS
   @DF-RHF iter   2:    -2.85574054867523   -1.95351e-07   4.25840e-06 DIIS
   @DF-RHF iter   3:    -2.85574055494350   -6.26827e-09   2.41857e-07 DIIS
  Energy and wave function converged.


  ==> Post-Iterations <==

    Orbital Energies [Eh]
    ---------------------

    Doubly Occupied:                                                      

       1A1    -0.917132  

    Virtual:                                                              

       2A1     0.145260     3A1     0.210701     1B1     0.252340  
       1B2     0.252340     4A1     0.279338     2B1     0.538327  
       2B2     0.538327     5A1     0.613812     6A1     1.056803  
       3B1     1.307642     3B2     1.307642     7A1     1.342610  
       8A1     1.729347     9A1     2.123626     1A2     2.123626  
       4B1     2.123773     4B2     2.123773    10A1     2.132889  
       5B1     3.029193     5B2     3.029193    11A1     3.085104  
      12A1     4.663803     6B2     8.944025     6B1     8.944025  
      13A1     8.955277     2A2     8.956263    14A1     8.956263  
       7B2     8.956402     7B1     8.956402    15A1     8.987359  
      16A1    53.410287  

    Final Occupation by Irrep:
             A1    A2    B1    B2 
    DOCC [     1,    0,    0,    0 ]
    NA   [     1,    0,    0,    0 ]
    NB   [     1,    0,    0,    0 ]

  @DF-RHF Final Energy:    -2.85574055494350

   => Energetics <=

    Nuclear Repulsion Energy =              0.0000000000000000
    One-Electron Energy =                  -3.8772159654129816
    Two-Electron Energy =                   1.0214754104694794
    Total Energy =                         -2.8557405549435022

Computation Completed


Properties will be evaluated at   0.000000,   0.000000,   0.000000 [a0]

Properties computed using the SCF density matrix


 Multipole Moments:

 ------------------------------------------------------------------------------------
     Multipole            Electronic (a.u.)      Nuclear  (a.u.)        Total (a.u.)
 ------------------------------------------------------------------------------------

 L = 1.  Multiply by 2.5417464519 to convert [e a0] to [Debye]
 Dipole X            :          0.0000000            0.0000000            0.0000000
 Dipole Y            :          0.0000000            0.0000000            0.0000000
 Dipole Z            :          9.4466718           -9.4470102           -0.0003383
 Magnitude           :                                                    0.0003383

 ------------------------------------------------------------------------------------

*** tstop() called on kichot at Mon Jun 15 06:35:39 2026
Module time:
	user time   =       0.14 seconds =       0.00 minutes
	system time =       0.00 seconds =       0.00 minutes
	total time  =          0 seconds =       0.00 minutes
Total time:
	user time   =       0.34 seconds =       0.01 minutes
	system time =       0.01 seconds =       0.00 minutes
	total time  =          1 seconds =       0.02 minutes

    Psi4 stopped on: Monday, 15 June 2026 06:35AM
    Psi4 wall time for execution: 0:00:00.17


    -----------------------------------------------------------------------
          Psi4: An Open-Source Ab Initio Electronic Structure Package
                               Psi4 1.11a1.dev42 

                         Git: Rev {master} 144882d 


    D. G. A. Smith, L. A. Burns, A. C. Simmonett, R. M. Parrish,
    M. C. Schieber, R. Galvelis, P. Kraus, H. Kruse, R. Di Remigio,
    A. Alenaizan, A. M. James, S. Lehtola, J. P. Misiewicz, M. Scheurer,
    R. A. Shaw, J. B. Schriber, Y. Xie, Z. L. Glick, D. A. Sirianni,
    J. S. O'Brien, J. M. Waldrop, A. Kumar, E. G. Hohenstein,
    B. P. Pritchard, B. R. Brooks, H. F. Schaefer III, A. Yu. Sokolov,
    K. Patkowski, A. E. DePrince III, U. Bozkaya, R. A. King,
    F. A. Evangelista, J. M. Turney, T. D. Crawford, C. D. Sherrill,
    J. Chem. Phys. 152(18) 184108 (2020). https://doi.org/10.1063/5.0006002

                            Additional Code Authors
    E. T. Seidl, C. L. Janssen, E. F. Valeev, M. L. Leininger,
    J. F. Gonthier, R. M. Richard, H. R. McAlexander, M. Saitow, X. Wang,
    P. Verma, M. H. Lechner, A. Jiang, S. Behnle, A. G. Heide,
    M. F. Herbst, D. L. Poole, T. Győri, E. C. Mitchell, J. P. Pederson,
    and A. M. Wallace

             Previous Authors, Complete List of Code Contributors,
                       and Citations for Specific Modules
    https://github.com/psi4/psi4/blob/master/codemeta.json
    https://github.com/psi4/psi4/graphs/contributors
    https://psicode.org/psi4manual/master/introduction.html#citing-psifour

    -----------------------------------------------------------------------


    Psi4 started on: Monday, 15 June 2026 06:35AM

    Process ID: 215698
    Host:       kichot
    PSIDATADIR: /opt/psi4/share/psi4
    Memory:     1.9 GiB
    Threads:    1
    Addons:     a̶d̶c̶c̶, a̶m̶b̶i̶t̶, b̶s̶e̶, c̶c̶t̶3̶, c̶f̶o̶u̶r̶, c̶h̶e̶m̶p̶s̶2̶, c̶p̶p̶e̶, d̶d̶x̶,
                d̶f̶t̶d̶3̶, d̶f̶t̶d̶4̶, d̶k̶h̶, e̶c̶p̶i̶n̶t̶, e̶i̶n̶s̶u̶m̶s̶, f̶o̶r̶t̶e̶,
                g̶a̶u̶x̶c̶, g̶c̶p̶, g̶d̶m̶a̶, g̶e̶o̶m̶e̶t̶r̶i̶c̶, g̶p̶u̶_̶d̶f̶c̶c̶,
                i̶n̶t̶e̶g̶r̶a̶t̶o̶r̶x̶x̶, i̶p̶i̶, l̶i̶b̶e̶f̶p̶, m̶d̶i̶, m̶p̶2̶d̶, m̶r̶c̶c̶,
                o̶o̶o̶, o̶p̶e̶n̶f̶e̶r̶m̶i̶o̶n̶p̶s̶i̶4̶, p̶c̶m̶s̶o̶l̶v̶e̶r̶,
                p̶s̶i̶4̶f̶o̶c̶k̶c̶i̶, p̶s̶i̶x̶a̶s̶, p̶y̶e̶i̶n̶s̶u̶m̶s̶, r̶e̶s̶p̶, s̶i̶m̶i̶n̶t̶,
                s̶n̶s̶m̶p̶2̶, v̶2̶r̶d̶m̶_̶c̶a̶s̶s̶c̶f̶

  ==> Input QCSchema <==

--------------------------------------------------------------------------
{'driver': 'energy',
 'extras': {'psiapi': True, 'wfn_qcvars_only': True},
 'id': None,
 'keywords': {'function_kwargs': {}},
 'model': {'basis': 'aug-cc-pvdz', 'method': 'scf'},
 'molecule': {'atom_labels': ['', ''],
              'atomic_numbers': [2, 10],
              'extras': {},
              'fix_com': True,
              'fix_orientation': True,
              'fragment_charges': [0.0, 0.0],
              'fragment_multiplicities': [1, 1],
              'fragments': [[0], [1]],
              'geometry': [0.0, 0.0, -4.7235050799945, 0.0, 0.0, 0.9456732963789],
              'mass_numbers': [4, 20],
              'masses': [4.00260325413, 19.9924401762],
              'molecular_charge': 0.0,
              'molecular_multiplicity': 1,
              'name': 'He-Ne ([0, 1],[])',
              'provenance': {'creator': 'QCElemental',
                             'routine': 'qcelemental.molparse.from_schema',
                             'version': '0.29.0'},
              'real': [True, True],
              'schema_name': 'qcschema_molecule',
              'schema_version': 2,
              'symbols': ['He', 'Ne'],
              'validated': True},
 'protocols': {'stdout': True},
 'provenance': {'creator': 'QCElemental', 'routine': 'qcelemental.models.results', 'version': '0.29.0'},
 'schema_name': 'qcschema_input',
 'schema_version': 1}
--------------------------------------------------------------------------

Scratch directory: /scratch/lukasz/psi4/
   => Libint2 <=

    Primary   basis highest AM E, G, H:  5, 4, 3
    Auxiliary basis highest AM E, G, H:  6, 5, 4
    Onebody   basis highest AM E, G, H:  6, 5, 4
    Solid Harmonics ordering:            Gaussian

*** tstart() called on kichot
*** at Mon Jun 15 06:35:39 2026

   => Loading Basis Set <=

    Name: AUG-CC-PVDZ
    Role: ORBITAL
    Keyword: BASIS
    atoms 1 entry HE         line    54 file /opt/psi4/share/psi4/basis/aug-cc-pvdz.gbs 
    atoms 2 entry NE         line   326 file /opt/psi4/share/psi4/basis/aug-cc-pvdz.gbs 


         ---------------------------------------------------------
                                   SCF
               by Justin Turney, Rob Parrish, Andy Simmonett
                          and Daniel G. A. Smith
                              RHF Reference
                        1 Threads,   1907 MiB Core
         ---------------------------------------------------------

  ==> Geometry <==

    Molecular point group: c2v
    Full point group: C_inf_v

    Geometry (in Bohr), charge = 0, multiplicity = 1:

       Center              X                  Y                   Z               Mass       
    ------------   -----------------  -----------------  -----------------  -----------------
         HE           0.000000000000     0.000000000000    -4.723505079995     4.002603254130
         NE           0.000000000000     0.000000000000     0.945673296379    19.992440176200

  Running in c2v symmetry.

  Rotational constants: A = ************  B =      0.56165  C =      0.56165 [cm^-1]
  Rotational constants: A = ************  B =  16837.89826  C =  16837.89826 [MHz]
  Nuclear repulsion =    3.527848071133385

  Charge       = 0
  Multiplicity = 1
  Electrons    = 12
  Nalpha       = 6
  Nbeta        = 6

  ==> Algorithm <==

  SCF Algorithm Type is DF.
  DIIS enabled.
  MOM disabled.
  Fractional occupation disabled.
  Guess Type is SAD.
  Energy threshold   = 1.00e-06
  Density threshold  = 1.00e-06
  Integral threshold = 1.00e-12

  ==> Primary Basis <==

  Basis Set: AUG-CC-PVDZ
    Blend: AUG-CC-PVDZ
    Number of shells: 14
    Number of basis functions: 32
    Number of Cartesian functions: 34
    Spherical Harmonics?: true
    Max angular momentum: 2

   => Loading Basis Set <=

    Name: (AUG-CC-PVDZ AUX)
    Role: JKFIT
    Keyword: DF_BASIS_SCF
    atoms 1 entry HE         line    34 file /opt/psi4/share/psi4/basis/def2-universal-jkfit.gbs 
    atoms 2 entry NE         line   386 file /opt/psi4/share/psi4/basis/aug-cc-pvdz-jkfit.gbs 

  ==> Integral Setup <==

  DFHelper Memory: AOs need 0.001 GiB; user supplied 1.397 GiB. 
  SCF_SUBTYPE=INCORE selected. In-core MEM_DF algorithm will be used.
  Using in-core AOs.

  ==> MemDFJK: Density-Fitted J/K Matrices <==

    J tasked:                   Yes
    K tasked:                   Yes
    wK tasked:                   No
    OpenMP threads:               1
    Memory [MiB]:              1430
    Algorithm:                 Core
    Schwarz Cutoff:           1E-12
    Mask sparsity (%):       0.0000
    Fitting Condition:        1E-10

   => Auxiliary Basis Set <=

  Basis Set: (AUG-CC-PVDZ AUX)
    Blend: AUG-CC-PVDZ-JKFIT + DEF2-UNIVERSAL-JKFIT
    Number of shells: 37
    Number of basis functions: 109
    Number of Cartesian functions: 126
    Spherical Harmonics?: true
    Max angular momentum: 3

  Minimum eigenvalue in the overlap matrix is 8.8674905081E-02.
  Reciprocal condition number of the overlap matrix is 3.7254979058E-02.
    Using symmetric orthogonalization.

  ==> Pre-Iterations <==

  SCF Guess: Superposition of Atomic Densities via on-the-fly atomic UHF (no occupation information).

   -------------------------
    Irrep   Nso     Nmo    
   -------------------------
     A1        16      16 
     A2         2       2 
     B1         7       7 
     B2         7       7 
   -------------------------
    Total      32      32
   -------------------------

  ==> Iterations <==

                           Total Energy        Delta E     RMS |[F,P]|

   @DF-RHF iter SAD:  -131.35219582701851   -1.31352e+02   0.00000e+00 
   @DF-RHF iter   1:  -131.35205675006856    1.39077e-04   8.64593e-05 DIIS
   @DF-RHF iter   2:  -131.35205736332085   -6.13252e-07   4.14451e-05 DIIS
   @DF-RHF iter   3:  -131.35205751430655   -1.50986e-07   1.92226e-06 DIIS
   @DF-RHF iter   4:  -131.35205751529361   -9.87058e-10   2.84962e-07 DIIS
  Energy and wave function converged.


  ==> Post-Iterations <==

    Orbital Energies [Eh]
    ---------------------

    Doubly Occupied:                                                      

       1A1   -32.794813     2A1    -1.940325     3A1    -0.917230  
       1B1    -0.852932     1B2    -0.852932     4A1    -0.852836  

    Virtual:                                                              

       5A1     0.177397     2B2     0.290787     2B1     0.290787  
       6A1     0.291917     7A1     0.323620     3B1     0.539802  
       3B2     0.539802     8A1     0.645145     9A1     1.724422  
      10A1     1.757888     1A2     1.757888     4B2     1.758091  
       4B1     1.758091    11A1     1.767875     5B2     1.963510  
       5B1     1.963510    12A1     2.000691    13A1     2.769972  
       6B1     3.029471     6B2     3.029471    14A1     3.102811  
      15A1     6.373165     2A2     6.373165     7B2     6.373312  
       7B1     6.373312    16A1     6.380766  

    Final Occupation by Irrep:
             A1    A2    B1    B2 
    DOCC [     4,    0,    1,    1 ]
    NA   [     4,    0,    1,    1 ]
    NB   [     4,    0,    1,    1 ]

  @DF-RHF Final Energy:  -131.35205751529361

   => Energetics <=

    Nuclear Repulsion Energy =              3.5278480711333855
    One-Electron Energy =                -193.3376736816707364
    Two-Electron Energy =                  58.4577680952437433
    Total Energy =                       -131.3520575152936090

Computation Completed


Properties will be evaluated at   0.000000,   0.000000,   0.000000 [a0]

Properties computed using the SCF density matrix


 Multipole Moments:

 ------------------------------------------------------------------------------------
     Multipole            Electronic (a.u.)      Nuclear  (a.u.)        Total (a.u.)
 ------------------------------------------------------------------------------------

 L = 1.  Multiply by 2.5417464519 to convert [e a0] to [Debye]
 Dipole X            :          0.0000000            0.0000000            0.0000000
 Dipole Y            :          0.0000000            0.0000000            0.0000000
 Dipole Z            :         -0.0096486            0.0097228            0.0000742
 Magnitude           :                                                    0.0000742

 ------------------------------------------------------------------------------------

*** tstop() called on kichot at Mon Jun 15 06:35:39 2026
Module time:
	user time   =       0.16 seconds =       0.00 minutes
	system time =       0.00 seconds =       0.00 minutes
	total time  =          0 seconds =       0.00 minutes
Total time:
	user time   =       0.54 seconds =       0.01 minutes
	system time =       0.02 seconds =       0.00 minutes
	total time  =          1 seconds =       0.02 minutes

    Psi4 stopped on: Monday, 15 June 2026 06:35AM
    Psi4 wall time for execution: 0:00:00.19


  //>>>>>>>>>>>>>>>>>>>>>>>>>>>>>>>>>>>//
  //          ManyBody Results         //
  //<<<<<<<<<<<<<<<<<<<<<<<<<<<<<<<<<<<//


   ==> N-Body: Counterpoise Corrected (CP) energies <==

              MC n-Body  Total Energy            Interaction Energy                          N-body Contribution to Interaction Energy
                         [Eh]                    [Eh]                  [kcal/mol]            [Eh]                  [kcal/mol]
              §A  1        N/A                   0.000000000000        0.000000000000        0.000000000000        0.000000000000
     FULL/RTN §A  2        N/A                   0.000061750224        0.038748850750        0.000061750224        0.038748850750

   MC Legend: §A: "(auto)"


Scratch directory: /scratch/lukasz/psi4/

  //>>>>>>>>>>>>>>>>>>>>>>>>>>>>>>>>>>>//
  //   ManyBody Setup: N-Body Levels 2 //
  //<<<<<<<<<<<<<<<<<<<<<<<<<<<<<<<<<<<//

    Model chemistry "(auto)" (§A):          3
        Number of 1-body computations:      2 (nocp: 0, cp: 2, vmfc_compute: 0)
        Number of 2-body computations:      1 (nocp: 0, cp: 1, vmfc_compute: 0)

    -----------------------------------------------------------------------
          Psi4: An Open-Source Ab Initio Electronic Structure Package
                               Psi4 1.11a1.dev42 

                         Git: Rev {master} 144882d 


    D. G. A. Smith, L. A. Burns, A. C. Simmonett, R. M. Parrish,
    M. C. Schieber, R. Galvelis, P. Kraus, H. Kruse, R. Di Remigio,
    A. Alenaizan, A. M. James, S. Lehtola, J. P. Misiewicz, M. Scheurer,
    R. A. Shaw, J. B. Schriber, Y. Xie, Z. L. Glick, D. A. Sirianni,
    J. S. O'Brien, J. M. Waldrop, A. Kumar, E. G. Hohenstein,
    B. P. Pritchard, B. R. Brooks, H. F. Schaefer III, A. Yu. Sokolov,
    K. Patkowski, A. E. DePrince III, U. Bozkaya, R. A. King,
    F. A. Evangelista, J. M. Turney, T. D. Crawford, C. D. Sherrill,
    J. Chem. Phys. 152(18) 184108 (2020). https://doi.org/10.1063/5.0006002

                            Additional Code Authors
    E. T. Seidl, C. L. Janssen, E. F. Valeev, M. L. Leininger,
    J. F. Gonthier, R. M. Richard, H. R. McAlexander, M. Saitow, X. Wang,
    P. Verma, M. H. Lechner, A. Jiang, S. Behnle, A. G. Heide,
    M. F. Herbst, D. L. Poole, T. Győri, E. C. Mitchell, J. P. Pederson,
    and A. M. Wallace

             Previous Authors, Complete List of Code Contributors,
                       and Citations for Specific Modules
    https://github.com/psi4/psi4/blob/master/codemeta.json
    https://github.com/psi4/psi4/graphs/contributors
    https://psicode.org/psi4manual/master/introduction.html#citing-psifour

    -----------------------------------------------------------------------


    Psi4 started on: Monday, 15 June 2026 06:35AM

    Process ID: 215698
    Host:       kichot
    PSIDATADIR: /opt/psi4/share/psi4
    Memory:     1.9 GiB
    Threads:    1
    Addons:     a̶d̶c̶c̶, a̶m̶b̶i̶t̶, b̶s̶e̶, c̶c̶t̶3̶, c̶f̶o̶u̶r̶, c̶h̶e̶m̶p̶s̶2̶, c̶p̶p̶e̶, d̶d̶x̶,
                d̶f̶t̶d̶3̶, d̶f̶t̶d̶4̶, d̶k̶h̶, e̶c̶p̶i̶n̶t̶, e̶i̶n̶s̶u̶m̶s̶, f̶o̶r̶t̶e̶,
                g̶a̶u̶x̶c̶, g̶c̶p̶, g̶d̶m̶a̶, g̶e̶o̶m̶e̶t̶r̶i̶c̶, g̶p̶u̶_̶d̶f̶c̶c̶,
                i̶n̶t̶e̶g̶r̶a̶t̶o̶r̶x̶x̶, i̶p̶i̶, l̶i̶b̶e̶f̶p̶, m̶d̶i̶, m̶p̶2̶d̶, m̶r̶c̶c̶,
                o̶o̶o̶, o̶p̶e̶n̶f̶e̶r̶m̶i̶o̶n̶p̶s̶i̶4̶, p̶c̶m̶s̶o̶l̶v̶e̶r̶,
                p̶s̶i̶4̶f̶o̶c̶k̶c̶i̶, p̶s̶i̶x̶a̶s̶, p̶y̶e̶i̶n̶s̶u̶m̶s̶, r̶e̶s̶p̶, s̶i̶m̶i̶n̶t̶,
                s̶n̶s̶m̶p̶2̶, v̶2̶r̶d̶m̶_̶c̶a̶s̶s̶c̶f̶

  ==> Input QCSchema <==

--------------------------------------------------------------------------
{'driver': 'energy',
 'extras': {'psiapi': True, 'wfn_qcvars_only': True},
 'id': None,
 'keywords': {'function_kwargs': {}},
 'model': {'basis': 'aug-cc-pvdz', 'method': 'mp2'},
 'molecule': {'atom_labels': ['', ''],
              'atomic_numbers': [2, 10],
              'extras': {},
              'fix_com': True,
              'fix_orientation': True,
              'fragment_charges': [0.0, 0.0],
              'fragment_multiplicities': [1, 1],
              'fragments': [[0], [1]],
              'geometry': [0.0, 0.0, -4.7235050799945, 0.0, 0.0, 0.9456732963789],
              'mass_numbers': [4, 20],
              'masses': [4.00260325413, 19.9924401762],
              'molecular_charge': 0.0,
              'molecular_multiplicity': 1,
              'name': 'He-Ne ([1],[0])',
              'provenance': {'creator': 'QCElemental',
                             'routine': 'qcelemental.molparse.from_schema',
                             'version': '0.29.0'},
              'real': [False, True],
              'schema_name': 'qcschema_molecule',
              'schema_version': 2,
              'symbols': ['He', 'Ne'],
              'validated': True},
 'protocols': {'stdout': True},
 'provenance': {'creator': 'QCElemental', 'routine': 'qcelemental.models.results', 'version': '0.29.0'},
 'schema_name': 'qcschema_input',
 'schema_version': 1}
--------------------------------------------------------------------------

Scratch directory: /scratch/lukasz/psi4/
    SCF Algorithm Type (re)set to DF.
   => Libint2 <=

    Primary   basis highest AM E, G, H:  5, 4, 3
    Auxiliary basis highest AM E, G, H:  6, 5, 4
    Onebody   basis highest AM E, G, H:  6, 5, 4
    Solid Harmonics ordering:            Gaussian

*** tstart() called on kichot
*** at Mon Jun 15 06:35:39 2026

   => Loading Basis Set <=

    Name: AUG-CC-PVDZ
    Role: ORBITAL
    Keyword: BASIS
    atoms 1 entry HE         line    54 file /opt/psi4/share/psi4/basis/aug-cc-pvdz.gbs 
    atoms 2 entry NE         line   326 file /opt/psi4/share/psi4/basis/aug-cc-pvdz.gbs 


         ---------------------------------------------------------
                                   SCF
               by Justin Turney, Rob Parrish, Andy Simmonett
                          and Daniel G. A. Smith
                              RHF Reference
                        1 Threads,   1907 MiB Core
         ---------------------------------------------------------

  ==> Geometry <==

    Molecular point group: c2v
    Full point group: C_inf_v

    Geometry (in Bohr), charge = 0, multiplicity = 1:

       Center              X                  Y                   Z               Mass       
    ------------   -----------------  -----------------  -----------------  -----------------
      Gh(HE)          0.000000000000     0.000000000000    -4.723505079995     4.002603254130
         NE           0.000000000000     0.000000000000     0.945673296379    19.992440176200

  Running in c2v symmetry.

  Rotational constants: A = ************  B =      0.56165  C =      0.56165 [cm^-1]
  Rotational constants: A = ************  B =  16837.89826  C =  16837.89826 [MHz]
  Nuclear repulsion =    0.000000000000000

  Charge       = 0
  Multiplicity = 1
  Electrons    = 10
  Nalpha       = 5
  Nbeta        = 5

  ==> Algorithm <==

  SCF Algorithm Type is DF.
  DIIS enabled.
  MOM disabled.
  Fractional occupation disabled.
  Guess Type is SAD.
  Energy threshold   = 1.00e-08
  Density threshold  = 1.00e-08
  Integral threshold = 1.00e-12

  ==> Primary Basis <==

  Basis Set: AUG-CC-PVDZ
    Blend: AUG-CC-PVDZ
    Number of shells: 14
    Number of basis functions: 32
    Number of Cartesian functions: 34
    Spherical Harmonics?: true
    Max angular momentum: 2

   => Loading Basis Set <=

    Name: (AUG-CC-PVDZ AUX)
    Role: JKFIT
    Keyword: DF_BASIS_SCF
    atoms 1 entry HE         line    34 file /opt/psi4/share/psi4/basis/def2-universal-jkfit.gbs 
    atoms 2 entry NE         line   386 file /opt/psi4/share/psi4/basis/aug-cc-pvdz-jkfit.gbs 

  ==> Integral Setup <==

  DFHelper Memory: AOs need 0.001 GiB; user supplied 1.397 GiB. 
  SCF_SUBTYPE=INCORE selected. In-core MEM_DF algorithm will be used.
  Using in-core AOs.

  ==> MemDFJK: Density-Fitted J/K Matrices <==

    J tasked:                   Yes
    K tasked:                   Yes
    wK tasked:                   No
    OpenMP threads:               1
    Memory [MiB]:              1430
    Algorithm:                 Core
    Schwarz Cutoff:           1E-12
    Mask sparsity (%):       0.0000
    Fitting Condition:        1E-10

   => Auxiliary Basis Set <=

  Basis Set: (AUG-CC-PVDZ AUX)
    Blend: AUG-CC-PVDZ-JKFIT + DEF2-UNIVERSAL-JKFIT
    Number of shells: 37
    Number of basis functions: 109
    Number of Cartesian functions: 126
    Spherical Harmonics?: true
    Max angular momentum: 3

  Minimum eigenvalue in the overlap matrix is 8.8674905081E-02.
  Reciprocal condition number of the overlap matrix is 3.7254979058E-02.
    Using symmetric orthogonalization.

  ==> Pre-Iterations <==

  SCF Guess: Superposition of Atomic Densities via on-the-fly atomic UHF (no occupation information).

   -------------------------
    Irrep   Nso     Nmo    
   -------------------------
     A1        16      16 
     A2         2       2 
     B1         7       7 
     B2         7       7 
   -------------------------
    Total      32      32
   -------------------------

  ==> Iterations <==

                           Total Energy        Delta E     RMS |[F,P]|

   @DF-RHF iter SAD:  -128.49636228134375   -1.28496e+02   0.00000e+00 
   @DF-RHF iter   1:  -128.49637801181851   -1.57305e-05   8.22130e-05 DIIS
   @DF-RHF iter   2:  -128.49637857241825   -5.60600e-07   3.97995e-05 DIIS
   @DF-RHF iter   3:  -128.49637871006075   -1.37643e-07   1.45734e-06 DIIS
   @DF-RHF iter   4:  -128.49637871057439   -5.13637e-10   1.21836e-07 DIIS
   @DF-RHF iter   5:  -128.49637871057757   -3.18323e-12   1.16931e-08 DIIS
   @DF-RHF iter   6:  -128.49637871057763   -5.68434e-14   2.01504e-09 DIIS
  Energy and wave function converged.


  ==> Post-Iterations <==

    Orbital Energies [Eh]
    ---------------------

    Doubly Occupied:                                                      

       1A1   -32.794920     2A1    -1.940391     3A1    -0.853025  
       1B1    -0.853008     1B2    -0.853008  

    Virtual:                                                              

       4A1     0.103312     5A1     0.287556     2B2     0.291659  
       2B1     0.291659     6A1     0.333254     3B1     0.609385  
       3B2     0.609385     7A1     0.647551     8A1     0.719157  
       9A1     1.757861     1A2     1.757861     4B2     1.758118  
       4B1     1.758118    10A1     1.768244     5B2     1.963708  
       5B1     1.963708    11A1     1.998993    12A1     2.782775  
       6B1     3.691520     6B2     3.691520    13A1     3.748607  
      14A1     4.548888    15A1     6.373100     2A2     6.373100  
       7B2     6.373251     7B1     6.373251    16A1     6.380972  

    Final Occupation by Irrep:
             A1    A2    B1    B2 
    DOCC [     3,    0,    1,    1 ]
    NA   [     3,    0,    1,    1 ]
    NB   [     3,    0,    1,    1 ]

  @DF-RHF Final Energy:  -128.49637871057763

   => Energetics <=

    Nuclear Repulsion Energy =              0.0000000000000000
    One-Electron Energy =                -182.4040524347245764
    Two-Electron Energy =                  53.9076737241469459
    Total Energy =                       -128.4963787105776305

Computation Completed


Properties will be evaluated at   0.000000,   0.000000,   0.000000 [a0]

Properties computed using the SCF density matrix


 Multipole Moments:

 ------------------------------------------------------------------------------------
     Multipole            Electronic (a.u.)      Nuclear  (a.u.)        Total (a.u.)
 ------------------------------------------------------------------------------------

 L = 1.  Multiply by 2.5417464519 to convert [e a0] to [Debye]
 Dipole X            :          0.0000000            0.0000000            0.0000000
 Dipole Y            :          0.0000000            0.0000000            0.0000000
 Dipole Z            :         -9.4563182            9.4567330            0.0004147
 Magnitude           :                                                    0.0004147

 ------------------------------------------------------------------------------------

*** tstop() called on kichot at Mon Jun 15 06:35:39 2026
Module time:
	user time   =       0.16 seconds =       0.00 minutes
	system time =       0.01 seconds =       0.00 minutes
	total time  =          0 seconds =       0.00 minutes
Total time:
	user time   =       0.80 seconds =       0.01 minutes
	system time =       0.03 seconds =       0.00 minutes
	total time  =          1 seconds =       0.02 minutes

*** tstart() called on kichot
*** at Mon Jun 15 06:35:39 2026


  //>>>>>>>>>>>>>>>>>>>>>>>>>>>>>>>>>>>//
  //               DFMP2               //
  //<<<<<<<<<<<<<<<<<<<<<<<<<<<<<<<<<<<//

   => Loading Basis Set <=

    Name: (AUG-CC-PVDZ AUX)
    Role: RIFIT
    Keyword: DF_BASIS_MP2
    atoms 1 entry HE         line    50 file /opt/psi4/share/psi4/basis/aug-cc-pvdz-ri.gbs 
    atoms 2 entry NE         line   296 file /opt/psi4/share/psi4/basis/aug-cc-pvdz-ri.gbs 

	 --------------------------------------------------------
	                          DF-MP2                         
	      2nd-Order Density-Fitted Moller-Plesset Theory     
	              RMP2 Wavefunction,   1 Threads             
	                                                         
	        Rob Parrish, Justin Turney, Andy Simmonett,      
	           Ed Hohenstein, and C. David Sherrill          
	 --------------------------------------------------------

   => Auxiliary Basis Set <=

  Basis Set: (AUG-CC-PVDZ AUX)
    Blend: AUG-CC-PVDZ-RI
    Number of shells: 29
    Number of basis functions: 85
    Number of Cartesian functions: 99
    Spherical Harmonics?: true
    Max angular momentum: 3

	 --------------------------------------------------------
	                 NBF =    32, NAUX =    85
	 --------------------------------------------------------
	   CLASS    FOCC     OCC    AOCC    AVIR     VIR    FVIR
	   PAIRS       0       5       5      27      27       0
	 --------------------------------------------------------

	-----------------------------------------------------------
	 ==================> DF-MP2 Energies <==================== 
	-----------------------------------------------------------
	 Reference Energy          =    -128.4963787105776305 [Eh]
	 Singles Energy            =      -0.0000000000000000 [Eh]
	 Same-Spin Energy          =      -0.0575817773283630 [Eh]
	 Opposite-Spin Energy      =      -0.1515074231810549 [Eh]
	 Correlation Energy        =      -0.2090892005094178 [Eh]
	 Total Energy              =    -128.7054679110870552 [Eh]
	-----------------------------------------------------------
	 ================> DF-SCS-MP2 Energies <================== 
	-----------------------------------------------------------
	 SCS Same-Spin Scale       =       0.3333333333333333 [-]
	 SCS Opposite-Spin Scale   =       1.2000000000000000 [-]
	 SCS Same-Spin Energy      =      -0.0191939257761210 [Eh]
	 SCS Opposite-Spin Energy  =      -0.1818089078172658 [Eh]
	 SCS Correlation Energy    =      -0.2010028335933868 [Eh]
	 SCS Total Energy          =    -128.6973815441710087 [Eh]
	-----------------------------------------------------------


*** tstop() called on kichot at Mon Jun 15 06:35:39 2026
Module time:
	user time   =       0.02 seconds =       0.00 minutes
	system time =       0.00 seconds =       0.00 minutes
	total time  =          0 seconds =       0.00 minutes
Total time:
	user time   =       0.82 seconds =       0.01 minutes
	system time =       0.03 seconds =       0.00 minutes
	total time  =          1 seconds =       0.02 minutes

    Psi4 stopped on: Monday, 15 June 2026 06:35AM
    Psi4 wall time for execution: 0:00:00.21


    -----------------------------------------------------------------------
          Psi4: An Open-Source Ab Initio Electronic Structure Package
                               Psi4 1.11a1.dev42 

                         Git: Rev {master} 144882d 


    D. G. A. Smith, L. A. Burns, A. C. Simmonett, R. M. Parrish,
    M. C. Schieber, R. Galvelis, P. Kraus, H. Kruse, R. Di Remigio,
    A. Alenaizan, A. M. James, S. Lehtola, J. P. Misiewicz, M. Scheurer,
    R. A. Shaw, J. B. Schriber, Y. Xie, Z. L. Glick, D. A. Sirianni,
    J. S. O'Brien, J. M. Waldrop, A. Kumar, E. G. Hohenstein,
    B. P. Pritchard, B. R. Brooks, H. F. Schaefer III, A. Yu. Sokolov,
    K. Patkowski, A. E. DePrince III, U. Bozkaya, R. A. King,
    F. A. Evangelista, J. M. Turney, T. D. Crawford, C. D. Sherrill,
    J. Chem. Phys. 152(18) 184108 (2020). https://doi.org/10.1063/5.0006002

                            Additional Code Authors
    E. T. Seidl, C. L. Janssen, E. F. Valeev, M. L. Leininger,
    J. F. Gonthier, R. M. Richard, H. R. McAlexander, M. Saitow, X. Wang,
    P. Verma, M. H. Lechner, A. Jiang, S. Behnle, A. G. Heide,
    M. F. Herbst, D. L. Poole, T. Győri, E. C. Mitchell, J. P. Pederson,
    and A. M. Wallace

             Previous Authors, Complete List of Code Contributors,
                       and Citations for Specific Modules
    https://github.com/psi4/psi4/blob/master/codemeta.json
    https://github.com/psi4/psi4/graphs/contributors
    https://psicode.org/psi4manual/master/introduction.html#citing-psifour

    -----------------------------------------------------------------------


    Psi4 started on: Monday, 15 June 2026 06:35AM

    Process ID: 215698
    Host:       kichot
    PSIDATADIR: /opt/psi4/share/psi4
    Memory:     1.9 GiB
    Threads:    1
    Addons:     a̶d̶c̶c̶, a̶m̶b̶i̶t̶, b̶s̶e̶, c̶c̶t̶3̶, c̶f̶o̶u̶r̶, c̶h̶e̶m̶p̶s̶2̶, c̶p̶p̶e̶, d̶d̶x̶,
                d̶f̶t̶d̶3̶, d̶f̶t̶d̶4̶, d̶k̶h̶, e̶c̶p̶i̶n̶t̶, e̶i̶n̶s̶u̶m̶s̶, f̶o̶r̶t̶e̶,
                g̶a̶u̶x̶c̶, g̶c̶p̶, g̶d̶m̶a̶, g̶e̶o̶m̶e̶t̶r̶i̶c̶, g̶p̶u̶_̶d̶f̶c̶c̶,
                i̶n̶t̶e̶g̶r̶a̶t̶o̶r̶x̶x̶, i̶p̶i̶, l̶i̶b̶e̶f̶p̶, m̶d̶i̶, m̶p̶2̶d̶, m̶r̶c̶c̶,
                o̶o̶o̶, o̶p̶e̶n̶f̶e̶r̶m̶i̶o̶n̶p̶s̶i̶4̶, p̶c̶m̶s̶o̶l̶v̶e̶r̶,
                p̶s̶i̶4̶f̶o̶c̶k̶c̶i̶, p̶s̶i̶x̶a̶s̶, p̶y̶e̶i̶n̶s̶u̶m̶s̶, r̶e̶s̶p̶, s̶i̶m̶i̶n̶t̶,
                s̶n̶s̶m̶p̶2̶, v̶2̶r̶d̶m̶_̶c̶a̶s̶s̶c̶f̶

  ==> Input QCSchema <==

--------------------------------------------------------------------------
{'driver': 'energy',
 'extras': {'psiapi': True, 'wfn_qcvars_only': True},
 'id': None,
 'keywords': {'function_kwargs': {}},
 'model': {'basis': 'aug-cc-pvdz', 'method': 'mp2'},
 'molecule': {'atom_labels': ['', ''],
              'atomic_numbers': [2, 10],
              'extras': {},
              'fix_com': True,
              'fix_orientation': True,
              'fragment_charges': [0.0, 0.0],
              'fragment_multiplicities': [1, 1],
              'fragments': [[0], [1]],
              'geometry': [0.0, 0.0, -4.7235050799945, 0.0, 0.0, 0.9456732963789],
              'mass_numbers': [4, 20],
              'masses': [4.00260325413, 19.9924401762],
              'molecular_charge': 0.0,
              'molecular_multiplicity': 1,
              'name': 'He-Ne ([0],[1])',
              'provenance': {'creator': 'QCElemental',
                             'routine': 'qcelemental.molparse.from_schema',
                             'version': '0.29.0'},
              'real': [True, False],
              'schema_name': 'qcschema_molecule',
              'schema_version': 2,
              'symbols': ['He', 'Ne'],
              'validated': True},
 'protocols': {'stdout': True},
 'provenance': {'creator': 'QCElemental', 'routine': 'qcelemental.models.results', 'version': '0.29.0'},
 'schema_name': 'qcschema_input',
 'schema_version': 1}
--------------------------------------------------------------------------

Scratch directory: /scratch/lukasz/psi4/
    SCF Algorithm Type (re)set to DF.
   => Libint2 <=

    Primary   basis highest AM E, G, H:  5, 4, 3
    Auxiliary basis highest AM E, G, H:  6, 5, 4
    Onebody   basis highest AM E, G, H:  6, 5, 4
    Solid Harmonics ordering:            Gaussian

*** tstart() called on kichot
*** at Mon Jun 15 06:35:39 2026

   => Loading Basis Set <=

    Name: AUG-CC-PVDZ
    Role: ORBITAL
    Keyword: BASIS
    atoms 1 entry HE         line    54 file /opt/psi4/share/psi4/basis/aug-cc-pvdz.gbs 
    atoms 2 entry NE         line   326 file /opt/psi4/share/psi4/basis/aug-cc-pvdz.gbs 


         ---------------------------------------------------------
                                   SCF
               by Justin Turney, Rob Parrish, Andy Simmonett
                          and Daniel G. A. Smith
                              RHF Reference
                        1 Threads,   1907 MiB Core
         ---------------------------------------------------------

  ==> Geometry <==

    Molecular point group: c2v
    Full point group: C_inf_v

    Geometry (in Bohr), charge = 0, multiplicity = 1:

       Center              X                  Y                   Z               Mass       
    ------------   -----------------  -----------------  -----------------  -----------------
         HE           0.000000000000     0.000000000000    -4.723505079995     4.002603254130
      Gh(NE)          0.000000000000     0.000000000000     0.945673296379    19.992440176200

  Running in c2v symmetry.

  Rotational constants: A = ************  B =      0.56165  C =      0.56165 [cm^-1]
  Rotational constants: A = ************  B =  16837.89826  C =  16837.89826 [MHz]
  Nuclear repulsion =    0.000000000000000

  Charge       = 0
  Multiplicity = 1
  Electrons    = 2
  Nalpha       = 1
  Nbeta        = 1

  ==> Algorithm <==

  SCF Algorithm Type is DF.
  DIIS enabled.
  MOM disabled.
  Fractional occupation disabled.
  Guess Type is SAD.
  Energy threshold   = 1.00e-08
  Density threshold  = 1.00e-08
  Integral threshold = 1.00e-12

  ==> Primary Basis <==

  Basis Set: AUG-CC-PVDZ
    Blend: AUG-CC-PVDZ
    Number of shells: 14
    Number of basis functions: 32
    Number of Cartesian functions: 34
    Spherical Harmonics?: true
    Max angular momentum: 2

   => Loading Basis Set <=

    Name: (AUG-CC-PVDZ AUX)
    Role: JKFIT
    Keyword: DF_BASIS_SCF
    atoms 1 entry HE         line    34 file /opt/psi4/share/psi4/basis/def2-universal-jkfit.gbs 
    atoms 2 entry NE         line   386 file /opt/psi4/share/psi4/basis/aug-cc-pvdz-jkfit.gbs 

  ==> Integral Setup <==

  DFHelper Memory: AOs need 0.001 GiB; user supplied 1.397 GiB. 
  SCF_SUBTYPE=INCORE selected. In-core MEM_DF algorithm will be used.
  Using in-core AOs.

  ==> MemDFJK: Density-Fitted J/K Matrices <==

    J tasked:                   Yes
    K tasked:                   Yes
    wK tasked:                   No
    OpenMP threads:               1
    Memory [MiB]:              1430
    Algorithm:                 Core
    Schwarz Cutoff:           1E-12
    Mask sparsity (%):       0.0000
    Fitting Condition:        1E-10

   => Auxiliary Basis Set <=

  Basis Set: (AUG-CC-PVDZ AUX)
    Blend: AUG-CC-PVDZ-JKFIT + DEF2-UNIVERSAL-JKFIT
    Number of shells: 37
    Number of basis functions: 109
    Number of Cartesian functions: 126
    Spherical Harmonics?: true
    Max angular momentum: 3

  Minimum eigenvalue in the overlap matrix is 8.8674905081E-02.
  Reciprocal condition number of the overlap matrix is 3.7254979058E-02.
    Using symmetric orthogonalization.

  ==> Pre-Iterations <==

  SCF Guess: Superposition of Atomic Densities via on-the-fly atomic UHF (no occupation information).

   -------------------------
    Irrep   Nso     Nmo    
   -------------------------
     A1        16      16 
     A2         2       2 
     B1         7       7 
     B2         7       7 
   -------------------------
    Total      32      32
   -------------------------

  ==> Iterations <==

                           Total Energy        Delta E     RMS |[F,P]|

   @DF-RHF iter SAD:    -2.85573198583706   -2.85573e+00   0.00000e+00 
   @DF-RHF iter   1:    -2.85574035332383   -8.36749e-06   2.58180e-05 DIIS
   @DF-RHF iter   2:    -2.85574054867523   -1.95351e-07   4.25840e-06 DIIS
   @DF-RHF iter   3:    -2.85574055494350   -6.26827e-09   2.41857e-07 DIIS
   @DF-RHF iter   4:    -2.85574055496335   -1.98432e-11   2.67435e-08 DIIS
   @DF-RHF iter   5:    -2.85574055496357   -2.24709e-13   6.75882e-10 DIIS
  Energy and wave function converged.


  ==> Post-Iterations <==

    Orbital Energies [Eh]
    ---------------------

    Doubly Occupied:                                                      

       1A1    -0.917132  

    Virtual:                                                              

       2A1     0.145260     3A1     0.210701     1B1     0.252340  
       1B2     0.252340     4A1     0.279338     2B1     0.538327  
       2B2     0.538327     5A1     0.613812     6A1     1.056803  
       3B1     1.307642     3B2     1.307642     7A1     1.342610  
       8A1     1.729347     1A2     2.123626     9A1     2.123626  
       4B2     2.123773     4B1     2.123773    10A1     2.132889  
       5B1     3.029193     5B2     3.029193    11A1     3.085104  
      12A1     4.663803     6B1     8.944025     6B2     8.944025  
      13A1     8.955277     2A2     8.956263    14A1     8.956263  
       7B1     8.956402     7B2     8.956402    15A1     8.987359  
      16A1    53.410287  

    Final Occupation by Irrep:
             A1    A2    B1    B2 
    DOCC [     1,    0,    0,    0 ]
    NA   [     1,    0,    0,    0 ]
    NB   [     1,    0,    0,    0 ]

  @DF-RHF Final Energy:    -2.85574055496357

   => Energetics <=

    Nuclear Repulsion Energy =              0.0000000000000000
    One-Electron Energy =                  -3.8772161798809277
    Two-Electron Energy =                   1.0214756249173575
    Total Energy =                         -2.8557405549635702

Computation Completed


Properties will be evaluated at   0.000000,   0.000000,   0.000000 [a0]

Properties computed using the SCF density matrix


 Multipole Moments:

 ------------------------------------------------------------------------------------
     Multipole            Electronic (a.u.)      Nuclear  (a.u.)        Total (a.u.)
 ------------------------------------------------------------------------------------

 L = 1.  Multiply by 2.5417464519 to convert [e a0] to [Debye]
 Dipole X            :          0.0000000            0.0000000            0.0000000
 Dipole Y            :          0.0000000            0.0000000            0.0000000
 Dipole Z            :          9.4466711           -9.4470102           -0.0003390
 Magnitude           :                                                    0.0003390

 ------------------------------------------------------------------------------------

*** tstop() called on kichot at Mon Jun 15 06:35:39 2026
Module time:
	user time   =       0.13 seconds =       0.00 minutes
	system time =       0.01 seconds =       0.00 minutes
	total time  =          0 seconds =       0.00 minutes
Total time:
	user time   =       0.99 seconds =       0.02 minutes
	system time =       0.04 seconds =       0.00 minutes
	total time  =          1 seconds =       0.02 minutes

*** tstart() called on kichot
*** at Mon Jun 15 06:35:39 2026


  //>>>>>>>>>>>>>>>>>>>>>>>>>>>>>>>>>>>//
  //               DFMP2               //
  //<<<<<<<<<<<<<<<<<<<<<<<<<<<<<<<<<<<//

   => Loading Basis Set <=

    Name: (AUG-CC-PVDZ AUX)
    Role: RIFIT
    Keyword: DF_BASIS_MP2
    atoms 1 entry HE         line    50 file /opt/psi4/share/psi4/basis/aug-cc-pvdz-ri.gbs 
    atoms 2 entry NE         line   296 file /opt/psi4/share/psi4/basis/aug-cc-pvdz-ri.gbs 

	 --------------------------------------------------------
	                          DF-MP2                         
	      2nd-Order Density-Fitted Moller-Plesset Theory     
	              RMP2 Wavefunction,   1 Threads             
	                                                         
	        Rob Parrish, Justin Turney, Andy Simmonett,      
	           Ed Hohenstein, and C. David Sherrill          
	 --------------------------------------------------------

   => Auxiliary Basis Set <=

  Basis Set: (AUG-CC-PVDZ AUX)
    Blend: AUG-CC-PVDZ-RI
    Number of shells: 29
    Number of basis functions: 85
    Number of Cartesian functions: 99
    Spherical Harmonics?: true
    Max angular momentum: 3

	 --------------------------------------------------------
	                 NBF =    32, NAUX =    85
	 --------------------------------------------------------
	   CLASS    FOCC     OCC    AOCC    AVIR     VIR    FVIR
	   PAIRS       0       1       1      31      31       0
	 --------------------------------------------------------

	-----------------------------------------------------------
	 ==================> DF-MP2 Energies <==================== 
	-----------------------------------------------------------
	 Reference Energy          =      -2.8557405549635702 [Eh]
	 Singles Energy            =      -0.0000000000000000 [Eh]
	 Same-Spin Energy          =      -0.0000000000000000 [Eh]
	 Opposite-Spin Energy      =      -0.0269643639666658 [Eh]
	 Correlation Energy        =      -0.0269643639666658 [Eh]
	 Total Energy              =      -2.8827049189302358 [Eh]
	-----------------------------------------------------------
	 ================> DF-SCS-MP2 Energies <================== 
	-----------------------------------------------------------
	 SCS Same-Spin Scale       =       0.3333333333333333 [-]
	 SCS Opposite-Spin Scale   =       1.2000000000000000 [-]
	 SCS Same-Spin Energy      =      -0.0000000000000000 [Eh]
	 SCS Opposite-Spin Energy  =      -0.0323572367599990 [Eh]
	 SCS Correlation Energy    =      -0.0323572367599990 [Eh]
	 SCS Total Energy          =      -2.8880977917235691 [Eh]
	-----------------------------------------------------------


*** tstop() called on kichot at Mon Jun 15 06:35:39 2026
Module time:
	user time   =       0.02 seconds =       0.00 minutes
	system time =       0.00 seconds =       0.00 minutes
	total time  =          0 seconds =       0.00 minutes
Total time:
	user time   =       1.01 seconds =       0.02 minutes
	system time =       0.04 seconds =       0.00 minutes
	total time  =          1 seconds =       0.02 minutes

    Psi4 stopped on: Monday, 15 June 2026 06:35AM
    Psi4 wall time for execution: 0:00:00.19


    -----------------------------------------------------------------------
          Psi4: An Open-Source Ab Initio Electronic Structure Package
                               Psi4 1.11a1.dev42 

                         Git: Rev {master} 144882d 


    D. G. A. Smith, L. A. Burns, A. C. Simmonett, R. M. Parrish,
    M. C. Schieber, R. Galvelis, P. Kraus, H. Kruse, R. Di Remigio,
    A. Alenaizan, A. M. James, S. Lehtola, J. P. Misiewicz, M. Scheurer,
    R. A. Shaw, J. B. Schriber, Y. Xie, Z. L. Glick, D. A. Sirianni,
    J. S. O'Brien, J. M. Waldrop, A. Kumar, E. G. Hohenstein,
    B. P. Pritchard, B. R. Brooks, H. F. Schaefer III, A. Yu. Sokolov,
    K. Patkowski, A. E. DePrince III, U. Bozkaya, R. A. King,
    F. A. Evangelista, J. M. Turney, T. D. Crawford, C. D. Sherrill,
    J. Chem. Phys. 152(18) 184108 (2020). https://doi.org/10.1063/5.0006002

                            Additional Code Authors
    E. T. Seidl, C. L. Janssen, E. F. Valeev, M. L. Leininger,
    J. F. Gonthier, R. M. Richard, H. R. McAlexander, M. Saitow, X. Wang,
    P. Verma, M. H. Lechner, A. Jiang, S. Behnle, A. G. Heide,
    M. F. Herbst, D. L. Poole, T. Győri, E. C. Mitchell, J. P. Pederson,
    and A. M. Wallace

             Previous Authors, Complete List of Code Contributors,
                       and Citations for Specific Modules
    https://github.com/psi4/psi4/blob/master/codemeta.json
    https://github.com/psi4/psi4/graphs/contributors
    https://psicode.org/psi4manual/master/introduction.html#citing-psifour

    -----------------------------------------------------------------------


    Psi4 started on: Monday, 15 June 2026 06:35AM

    Process ID: 215698
    Host:       kichot
    PSIDATADIR: /opt/psi4/share/psi4
    Memory:     1.9 GiB
    Threads:    1
    Addons:     a̶d̶c̶c̶, a̶m̶b̶i̶t̶, b̶s̶e̶, c̶c̶t̶3̶, c̶f̶o̶u̶r̶, c̶h̶e̶m̶p̶s̶2̶, c̶p̶p̶e̶, d̶d̶x̶,
                d̶f̶t̶d̶3̶, d̶f̶t̶d̶4̶, d̶k̶h̶, e̶c̶p̶i̶n̶t̶, e̶i̶n̶s̶u̶m̶s̶, f̶o̶r̶t̶e̶,
                g̶a̶u̶x̶c̶, g̶c̶p̶, g̶d̶m̶a̶, g̶e̶o̶m̶e̶t̶r̶i̶c̶, g̶p̶u̶_̶d̶f̶c̶c̶,
                i̶n̶t̶e̶g̶r̶a̶t̶o̶r̶x̶x̶, i̶p̶i̶, l̶i̶b̶e̶f̶p̶, m̶d̶i̶, m̶p̶2̶d̶, m̶r̶c̶c̶,
                o̶o̶o̶, o̶p̶e̶n̶f̶e̶r̶m̶i̶o̶n̶p̶s̶i̶4̶, p̶c̶m̶s̶o̶l̶v̶e̶r̶,
                p̶s̶i̶4̶f̶o̶c̶k̶c̶i̶, p̶s̶i̶x̶a̶s̶, p̶y̶e̶i̶n̶s̶u̶m̶s̶, r̶e̶s̶p̶, s̶i̶m̶i̶n̶t̶,
                s̶n̶s̶m̶p̶2̶, v̶2̶r̶d̶m̶_̶c̶a̶s̶s̶c̶f̶

  ==> Input QCSchema <==

--------------------------------------------------------------------------
{'driver': 'energy',
 'extras': {'psiapi': True, 'wfn_qcvars_only': True},
 'id': None,
 'keywords': {'function_kwargs': {}},
 'model': {'basis': 'aug-cc-pvdz', 'method': 'mp2'},
 'molecule': {'atom_labels': ['', ''],
              'atomic_numbers': [2, 10],
              'extras': {},
              'fix_com': True,
              'fix_orientation': True,
              'fragment_charges': [0.0, 0.0],
              'fragment_multiplicities': [1, 1],
              'fragments': [[0], [1]],
              'geometry': [0.0, 0.0, -4.7235050799945, 0.0, 0.0, 0.9456732963789],
              'mass_numbers': [4, 20],
              'masses': [4.00260325413, 19.9924401762],
              'molecular_charge': 0.0,
              'molecular_multiplicity': 1,
              'name': 'He-Ne ([0, 1],[])',
              'provenance': {'creator': 'QCElemental',
                             'routine': 'qcelemental.molparse.from_schema',
                             'version': '0.29.0'},
              'real': [True, True],
              'schema_name': 'qcschema_molecule',
              'schema_version': 2,
              'symbols': ['He', 'Ne'],
              'validated': True},
 'protocols': {'stdout': True},
 'provenance': {'creator': 'QCElemental', 'routine': 'qcelemental.models.results', 'version': '0.29.0'},
 'schema_name': 'qcschema_input',
 'schema_version': 1}
--------------------------------------------------------------------------

Scratch directory: /scratch/lukasz/psi4/
    SCF Algorithm Type (re)set to DF.
   => Libint2 <=

    Primary   basis highest AM E, G, H:  5, 4, 3
    Auxiliary basis highest AM E, G, H:  6, 5, 4
    Onebody   basis highest AM E, G, H:  6, 5, 4
    Solid Harmonics ordering:            Gaussian

*** tstart() called on kichot
*** at Mon Jun 15 06:35:39 2026

   => Loading Basis Set <=

    Name: AUG-CC-PVDZ
    Role: ORBITAL
    Keyword: BASIS
    atoms 1 entry HE         line    54 file /opt/psi4/share/psi4/basis/aug-cc-pvdz.gbs 
    atoms 2 entry NE         line   326 file /opt/psi4/share/psi4/basis/aug-cc-pvdz.gbs 


         ---------------------------------------------------------
                                   SCF
               by Justin Turney, Rob Parrish, Andy Simmonett
                          and Daniel G. A. Smith
                              RHF Reference
                        1 Threads,   1907 MiB Core
         ---------------------------------------------------------

  ==> Geometry <==

    Molecular point group: c2v
    Full point group: C_inf_v

    Geometry (in Bohr), charge = 0, multiplicity = 1:

       Center              X                  Y                   Z               Mass       
    ------------   -----------------  -----------------  -----------------  -----------------
         HE           0.000000000000     0.000000000000    -4.723505079995     4.002603254130
         NE           0.000000000000     0.000000000000     0.945673296379    19.992440176200

  Running in c2v symmetry.

  Rotational constants: A = ************  B =      0.56165  C =      0.56165 [cm^-1]
  Rotational constants: A = ************  B =  16837.89826  C =  16837.89826 [MHz]
  Nuclear repulsion =    3.527848071133385

  Charge       = 0
  Multiplicity = 1
  Electrons    = 12
  Nalpha       = 6
  Nbeta        = 6

  ==> Algorithm <==

  SCF Algorithm Type is DF.
  DIIS enabled.
  MOM disabled.
  Fractional occupation disabled.
  Guess Type is SAD.
  Energy threshold   = 1.00e-08
  Density threshold  = 1.00e-08
  Integral threshold = 1.00e-12

  ==> Primary Basis <==

  Basis Set: AUG-CC-PVDZ
    Blend: AUG-CC-PVDZ
    Number of shells: 14
    Number of basis functions: 32
    Number of Cartesian functions: 34
    Spherical Harmonics?: true
    Max angular momentum: 2

   => Loading Basis Set <=

    Name: (AUG-CC-PVDZ AUX)
    Role: JKFIT
    Keyword: DF_BASIS_SCF
    atoms 1 entry HE         line    34 file /opt/psi4/share/psi4/basis/def2-universal-jkfit.gbs 
    atoms 2 entry NE         line   386 file /opt/psi4/share/psi4/basis/aug-cc-pvdz-jkfit.gbs 

  ==> Integral Setup <==

  DFHelper Memory: AOs need 0.001 GiB; user supplied 1.397 GiB. 
  SCF_SUBTYPE=INCORE selected. In-core MEM_DF algorithm will be used.
  Using in-core AOs.

  ==> MemDFJK: Density-Fitted J/K Matrices <==

    J tasked:                   Yes
    K tasked:                   Yes
    wK tasked:                   No
    OpenMP threads:               1
    Memory [MiB]:              1430
    Algorithm:                 Core
    Schwarz Cutoff:           1E-12
    Mask sparsity (%):       0.0000
    Fitting Condition:        1E-10

   => Auxiliary Basis Set <=

  Basis Set: (AUG-CC-PVDZ AUX)
    Blend: AUG-CC-PVDZ-JKFIT + DEF2-UNIVERSAL-JKFIT
    Number of shells: 37
    Number of basis functions: 109
    Number of Cartesian functions: 126
    Spherical Harmonics?: true
    Max angular momentum: 3

  Minimum eigenvalue in the overlap matrix is 8.8674905081E-02.
  Reciprocal condition number of the overlap matrix is 3.7254979058E-02.
    Using symmetric orthogonalization.

  ==> Pre-Iterations <==

  SCF Guess: Superposition of Atomic Densities via on-the-fly atomic UHF (no occupation information).

   -------------------------
    Irrep   Nso     Nmo    
   -------------------------
     A1        16      16 
     A2         2       2 
     B1         7       7 
     B2         7       7 
   -------------------------
    Total      32      32
   -------------------------

  ==> Iterations <==

                           Total Energy        Delta E     RMS |[F,P]|

   @DF-RHF iter SAD:  -131.35219582701851   -1.31352e+02   0.00000e+00 
   @DF-RHF iter   1:  -131.35205675006856    1.39077e-04   8.64593e-05 DIIS
   @DF-RHF iter   2:  -131.35205736332085   -6.13252e-07   4.14451e-05 DIIS
   @DF-RHF iter   3:  -131.35205751430655   -1.50986e-07   1.92226e-06 DIIS
   @DF-RHF iter   4:  -131.35205751529361   -9.87058e-10   2.84962e-07 DIIS
   @DF-RHF iter   5:  -131.35205751531780   -2.41869e-11   4.36253e-08 DIIS
   @DF-RHF iter   6:  -131.35205751531831   -5.11591e-13   3.20863e-09 DIIS
  Energy and wave function converged.


  ==> Post-Iterations <==

    Orbital Energies [Eh]
    ---------------------

    Doubly Occupied:                                                      

       1A1   -32.794813     2A1    -1.940325     3A1    -0.917230  
       1B1    -0.852932     1B2    -0.852932     4A1    -0.852836  

    Virtual:                                                              

       5A1     0.177397     2B2     0.290787     2B1     0.290787  
       6A1     0.291917     7A1     0.323620     3B1     0.539802  
       3B2     0.539802     8A1     0.645145     9A1     1.724422  
      10A1     1.757888     1A2     1.757888     4B2     1.758091  
       4B1     1.758091    11A1     1.767875     5B2     1.963510  
       5B1     1.963510    12A1     2.000691    13A1     2.769972  
       6B1     3.029471     6B2     3.029471    14A1     3.102811  
      15A1     6.373165     2A2     6.373165     7B1     6.373312  
       7B2     6.373312    16A1     6.380766  

    Final Occupation by Irrep:
             A1    A2    B1    B2 
    DOCC [     4,    0,    1,    1 ]
    NA   [     4,    0,    1,    1 ]
    NB   [     4,    0,    1,    1 ]

  @DF-RHF Final Energy:  -131.35205751531831

   => Energetics <=

    Nuclear Repulsion Energy =              3.5278480711333855
    One-Electron Energy =                -193.3376753940227957
    Two-Electron Energy =                  58.4577698075711112
    Total Energy =                       -131.3520575153183074

Computation Completed


Properties will be evaluated at   0.000000,   0.000000,   0.000000 [a0]

Properties computed using the SCF density matrix


 Multipole Moments:

 ------------------------------------------------------------------------------------
     Multipole            Electronic (a.u.)      Nuclear  (a.u.)        Total (a.u.)
 ------------------------------------------------------------------------------------

 L = 1.  Multiply by 2.5417464519 to convert [e a0] to [Debye]
 Dipole X            :          0.0000000            0.0000000            0.0000000
 Dipole Y            :          0.0000000            0.0000000            0.0000000
 Dipole Z            :         -0.0096491            0.0097228            0.0000737
 Magnitude           :                                                    0.0000737

 ------------------------------------------------------------------------------------

*** tstop() called on kichot at Mon Jun 15 06:35:40 2026
Module time:
	user time   =       0.17 seconds =       0.00 minutes
	system time =       0.00 seconds =       0.00 minutes
	total time  =          1 seconds =       0.02 minutes
Total time:
	user time   =       1.22 seconds =       0.02 minutes
	system time =       0.04 seconds =       0.00 minutes
	total time  =          2 seconds =       0.03 minutes

*** tstart() called on kichot
*** at Mon Jun 15 06:35:40 2026


  //>>>>>>>>>>>>>>>>>>>>>>>>>>>>>>>>>>>//
  //               DFMP2               //
  //<<<<<<<<<<<<<<<<<<<<<<<<<<<<<<<<<<<//

   => Loading Basis Set <=

    Name: (AUG-CC-PVDZ AUX)
    Role: RIFIT
    Keyword: DF_BASIS_MP2
    atoms 1 entry HE         line    50 file /opt/psi4/share/psi4/basis/aug-cc-pvdz-ri.gbs 
    atoms 2 entry NE         line   296 file /opt/psi4/share/psi4/basis/aug-cc-pvdz-ri.gbs 

	 --------------------------------------------------------
	                          DF-MP2                         
	      2nd-Order Density-Fitted Moller-Plesset Theory     
	              RMP2 Wavefunction,   1 Threads             
	                                                         
	        Rob Parrish, Justin Turney, Andy Simmonett,      
	           Ed Hohenstein, and C. David Sherrill          
	 --------------------------------------------------------

   => Auxiliary Basis Set <=

  Basis Set: (AUG-CC-PVDZ AUX)
    Blend: AUG-CC-PVDZ-RI
    Number of shells: 29
    Number of basis functions: 85
    Number of Cartesian functions: 99
    Spherical Harmonics?: true
    Max angular momentum: 3

	 --------------------------------------------------------
	                 NBF =    32, NAUX =    85
	 --------------------------------------------------------
	   CLASS    FOCC     OCC    AOCC    AVIR     VIR    FVIR
	   PAIRS       0       6       6      26      26       0
	 --------------------------------------------------------

	-----------------------------------------------------------
	 ==================> DF-MP2 Energies <==================== 
	-----------------------------------------------------------
	 Reference Energy          =    -131.3520575153183074 [Eh]
	 Singles Energy            =      -0.0000000000000000 [Eh]
	 Same-Spin Energy          =      -0.0576136475559227 [Eh]
	 Opposite-Spin Energy      =      -0.1784966838153668 [Eh]
	 Correlation Energy        =      -0.2361103313712896 [Eh]
	 Total Energy              =    -131.5881678466896005 [Eh]
	-----------------------------------------------------------
	 ================> DF-SCS-MP2 Energies <================== 
	-----------------------------------------------------------
	 SCS Same-Spin Scale       =       0.3333333333333333 [-]
	 SCS Opposite-Spin Scale   =       1.2000000000000000 [-]
	 SCS Same-Spin Energy      =      -0.0192045491853076 [Eh]
	 SCS Opposite-Spin Energy  =      -0.2141960205784402 [Eh]
	 SCS Correlation Energy    =      -0.2334005697637478 [Eh]
	 SCS Total Energy          =    -131.5854580850820525 [Eh]
	-----------------------------------------------------------


*** tstop() called on kichot at Mon Jun 15 06:35:40 2026
Module time:
	user time   =       0.02 seconds =       0.00 minutes
	system time =       0.00 seconds =       0.00 minutes
	total time  =          0 seconds =       0.00 minutes
Total time:
	user time   =       1.24 seconds =       0.02 minutes
	system time =       0.04 seconds =       0.00 minutes
	total time  =          2 seconds =       0.03 minutes

    Psi4 stopped on: Monday, 15 June 2026 06:35AM
    Psi4 wall time for execution: 0:00:00.22


  //>>>>>>>>>>>>>>>>>>>>>>>>>>>>>>>>>>>//
  //          ManyBody Results         //
  //<<<<<<<<<<<<<<<<<<<<<<<<<<<<<<<<<<<//


   ==> N-Body: Counterpoise Corrected (CP) energies <==

              MC n-Body  Total Energy            Interaction Energy                          N-body Contribution to Interaction Energy
                         [Eh]                    [Eh]                  [kcal/mol]            [Eh]                  [kcal/mol]
              §A  1        N/A                   0.000000000000        0.000000000000        0.000000000000        0.000000000000
     FULL/RTN §A  2        N/A                   0.000004983328        0.003127085342        0.000004983328        0.003127085342

   MC Legend: §A: "(auto)"


Scratch directory: /scratch/lukasz/psi4/

  //>>>>>>>>>>>>>>>>>>>>>>>>>>>>>>>>>>>//
  //   ManyBody Setup: N-Body Levels 2 //
  //<<<<<<<<<<<<<<<<<<<<<<<<<<<<<<<<<<<//

    Model chemistry "(auto)" (§A):          3
        Number of 1-body computations:      2 (nocp: 0, cp: 2, vmfc_compute: 0)
        Number of 2-body computations:      1 (nocp: 0, cp: 1, vmfc_compute: 0)

    -----------------------------------------------------------------------
          Psi4: An Open-Source Ab Initio Electronic Structure Package
                               Psi4 1.11a1.dev42 

                         Git: Rev {master} 144882d 


    D. G. A. Smith, L. A. Burns, A. C. Simmonett, R. M. Parrish,
    M. C. Schieber, R. Galvelis, P. Kraus, H. Kruse, R. Di Remigio,
    A. Alenaizan, A. M. James, S. Lehtola, J. P. Misiewicz, M. Scheurer,
    R. A. Shaw, J. B. Schriber, Y. Xie, Z. L. Glick, D. A. Sirianni,
    J. S. O'Brien, J. M. Waldrop, A. Kumar, E. G. Hohenstein,
    B. P. Pritchard, B. R. Brooks, H. F. Schaefer III, A. Yu. Sokolov,
    K. Patkowski, A. E. DePrince III, U. Bozkaya, R. A. King,
    F. A. Evangelista, J. M. Turney, T. D. Crawford, C. D. Sherrill,
    J. Chem. Phys. 152(18) 184108 (2020). https://doi.org/10.1063/5.0006002

                            Additional Code Authors
    E. T. Seidl, C. L. Janssen, E. F. Valeev, M. L. Leininger,
    J. F. Gonthier, R. M. Richard, H. R. McAlexander, M. Saitow, X. Wang,
    P. Verma, M. H. Lechner, A. Jiang, S. Behnle, A. G. Heide,
    M. F. Herbst, D. L. Poole, T. Győri, E. C. Mitchell, J. P. Pederson,
    and A. M. Wallace

             Previous Authors, Complete List of Code Contributors,
                       and Citations for Specific Modules
    https://github.com/psi4/psi4/blob/master/codemeta.json
    https://github.com/psi4/psi4/graphs/contributors
    https://psicode.org/psi4manual/master/introduction.html#citing-psifour

    -----------------------------------------------------------------------


    Psi4 started on: Monday, 15 June 2026 06:35AM

    Process ID: 215698
    Host:       kichot
    PSIDATADIR: /opt/psi4/share/psi4
    Memory:     1.9 GiB
    Threads:    1
    Addons:     a̶d̶c̶c̶, a̶m̶b̶i̶t̶, b̶s̶e̶, c̶c̶t̶3̶, c̶f̶o̶u̶r̶, c̶h̶e̶m̶p̶s̶2̶, c̶p̶p̶e̶, d̶d̶x̶,
                d̶f̶t̶d̶3̶, d̶f̶t̶d̶4̶, d̶k̶h̶, e̶c̶p̶i̶n̶t̶, e̶i̶n̶s̶u̶m̶s̶, f̶o̶r̶t̶e̶,
                g̶a̶u̶x̶c̶, g̶c̶p̶, g̶d̶m̶a̶, g̶e̶o̶m̶e̶t̶r̶i̶c̶, g̶p̶u̶_̶d̶f̶c̶c̶,
                i̶n̶t̶e̶g̶r̶a̶t̶o̶r̶x̶x̶, i̶p̶i̶, l̶i̶b̶e̶f̶p̶, m̶d̶i̶, m̶p̶2̶d̶, m̶r̶c̶c̶,
                o̶o̶o̶, o̶p̶e̶n̶f̶e̶r̶m̶i̶o̶n̶p̶s̶i̶4̶, p̶c̶m̶s̶o̶l̶v̶e̶r̶,
                p̶s̶i̶4̶f̶o̶c̶k̶c̶i̶, p̶s̶i̶x̶a̶s̶, p̶y̶e̶i̶n̶s̶u̶m̶s̶, r̶e̶s̶p̶, s̶i̶m̶i̶n̶t̶,
                s̶n̶s̶m̶p̶2̶, v̶2̶r̶d̶m̶_̶c̶a̶s̶s̶c̶f̶

  ==> Input QCSchema <==

--------------------------------------------------------------------------
{'driver': 'energy',
 'extras': {'psiapi': True, 'wfn_qcvars_only': True},
 'id': None,
 'keywords': {'function_kwargs': {}},
 'model': {'basis': 'aug-cc-pvtz', 'method': 'scf'},
 'molecule': {'atom_labels': ['', ''],
              'atomic_numbers': [2, 10],
              'extras': {},
              'fix_com': True,
              'fix_orientation': True,
              'fragment_charges': [0.0, 0.0],
              'fragment_multiplicities': [1, 1],
              'fragments': [[0], [1]],
              'geometry': [0.0, 0.0, -4.7235050799945, 0.0, 0.0, 0.9456732963789],
              'mass_numbers': [4, 20],
              'masses': [4.00260325413, 19.9924401762],
              'molecular_charge': 0.0,
              'molecular_multiplicity': 1,
              'name': 'He-Ne ([1],[0])',
              'provenance': {'creator': 'QCElemental',
                             'routine': 'qcelemental.molparse.from_schema',
                             'version': '0.29.0'},
              'real': [False, True],
              'schema_name': 'qcschema_molecule',
              'schema_version': 2,
              'symbols': ['He', 'Ne'],
              'validated': True},
 'protocols': {'stdout': True},
 'provenance': {'creator': 'QCElemental', 'routine': 'qcelemental.models.results', 'version': '0.29.0'},
 'schema_name': 'qcschema_input',
 'schema_version': 1}
--------------------------------------------------------------------------

Scratch directory: /scratch/lukasz/psi4/
   => Libint2 <=

    Primary   basis highest AM E, G, H:  5, 4, 3
    Auxiliary basis highest AM E, G, H:  6, 5, 4
    Onebody   basis highest AM E, G, H:  6, 5, 4
    Solid Harmonics ordering:            Gaussian

*** tstart() called on kichot
*** at Mon Jun 15 06:35:40 2026

   => Loading Basis Set <=

    Name: AUG-CC-PVTZ
    Role: ORBITAL
    Keyword: BASIS
    atoms 1 entry HE         line    62 file /opt/psi4/share/psi4/basis/aug-cc-pvtz.gbs 
    atoms 2 entry NE         line   423 file /opt/psi4/share/psi4/basis/aug-cc-pvtz.gbs 


         ---------------------------------------------------------
                                   SCF
               by Justin Turney, Rob Parrish, Andy Simmonett
                          and Daniel G. A. Smith
                              RHF Reference
                        1 Threads,   1907 MiB Core
         ---------------------------------------------------------

  ==> Geometry <==

    Molecular point group: c2v
    Full point group: C_inf_v

    Geometry (in Bohr), charge = 0, multiplicity = 1:

       Center              X                  Y                   Z               Mass       
    ------------   -----------------  -----------------  -----------------  -----------------
      Gh(HE)          0.000000000000     0.000000000000    -4.723505079995     4.002603254130
         NE           0.000000000000     0.000000000000     0.945673296379    19.992440176200

  Running in c2v symmetry.

  Rotational constants: A = ************  B =      0.56165  C =      0.56165 [cm^-1]
  Rotational constants: A = ************  B =  16837.89826  C =  16837.89826 [MHz]
  Nuclear repulsion =    0.000000000000000

  Charge       = 0
  Multiplicity = 1
  Electrons    = 10
  Nalpha       = 5
  Nbeta        = 5

  ==> Algorithm <==

  SCF Algorithm Type is DF.
  DIIS enabled.
  MOM disabled.
  Fractional occupation disabled.
  Guess Type is SAD.
  Energy threshold   = 1.00e-06
  Density threshold  = 1.00e-06
  Integral threshold = 1.00e-12

  ==> Primary Basis <==

  Basis Set: AUG-CC-PVTZ
    Blend: AUG-CC-PVTZ
    Number of shells: 23
    Number of basis functions: 69
    Number of Cartesian functions: 80
    Spherical Harmonics?: true
    Max angular momentum: 3

   => Loading Basis Set <=

    Name: (AUG-CC-PVTZ AUX)
    Role: JKFIT
    Keyword: DF_BASIS_SCF
    atoms 1 entry HE         line    34 file /opt/psi4/share/psi4/basis/def2-universal-jkfit.gbs 
    atoms 2 entry NE         line   410 file /opt/psi4/share/psi4/basis/aug-cc-pvtz-jkfit.gbs 

  ==> Integral Setup <==

  DFHelper Memory: AOs need 0.005 GiB; user supplied 1.397 GiB. 
  SCF_SUBTYPE=INCORE selected. In-core MEM_DF algorithm will be used.
  Using in-core AOs.

  ==> MemDFJK: Density-Fitted J/K Matrices <==

    J tasked:                   Yes
    K tasked:                   Yes
    wK tasked:                   No
    OpenMP threads:               1
    Memory [MiB]:              1430
    Algorithm:                 Core
    Schwarz Cutoff:           1E-12
    Mask sparsity (%):       6.2592
    Fitting Condition:        1E-10

   => Auxiliary Basis Set <=

  Basis Set: (AUG-CC-PVTZ AUX)
    Blend: AUG-CC-PVTZ-JKFIT + DEF2-UNIVERSAL-JKFIT
    Number of shells: 39
    Number of basis functions: 127
    Number of Cartesian functions: 156
    Spherical Harmonics?: true
    Max angular momentum: 4

  Minimum eigenvalue in the overlap matrix is 2.6733112480E-02.
  Reciprocal condition number of the overlap matrix is 9.2445953788E-03.
    Using symmetric orthogonalization.

  ==> Pre-Iterations <==

  SCF Guess: Superposition of Atomic Densities via on-the-fly atomic UHF (no occupation information).

   -------------------------
    Irrep   Nso     Nmo    
   -------------------------
     A1        30      30 
     A2         7       7 
     B1        16      16 
     B2        16      16 
   -------------------------
    Total      69      69
   -------------------------

  ==> Iterations <==

                           Total Energy        Delta E     RMS |[F,P]|

   @DF-RHF iter SAD:  -128.53326120683002   -1.28533e+02   0.00000e+00 
   @DF-RHF iter   1:  -128.53328555149210   -2.43447e-05   4.63594e-05 DIIS
   @DF-RHF iter   2:  -128.53328623758543   -6.86093e-07   2.13093e-05 DIIS
   @DF-RHF iter   3:  -128.53328636069287   -1.23107e-07   1.85488e-06 DIIS
   @DF-RHF iter   4:  -128.53328636309678   -2.40391e-09   1.08235e-07 DIIS
  Energy and wave function converged.


  ==> Post-Iterations <==

    Orbital Energies [Eh]
    ---------------------

    Doubly Occupied:                                                      

       1A1   -32.778997     2A1    -1.933396     3A1    -0.851198  
       1B2    -0.851189     1B1    -0.851189  

    Virtual:                                                              

       4A1     0.073189     5A1     0.237623     2B1     0.239172  
       2B2     0.239172     6A1     0.283514     7A1     0.434128  
       3B1     0.480407     3B2     0.480407     8A1     0.580478  
       9A1     1.131976     1A2     1.131976     4B1     1.132447  
       4B2     1.132447    10A1     1.148609     5B1     1.356194  
       5B2     1.356194    11A1     1.380798    12A1     1.570635  
       2A2     1.570635     6B1     1.581765     6B2     1.581765  
      13A1     1.630300    14A1     1.745946    15A1     2.048849  
       7B2     2.289735     7B1     2.289735    16A1     2.391121  
      17A1     3.610356     3A2     3.610356     8B1     3.613922  
       8B2     3.613922    18A1     3.673385     9B2     4.198583  
       9B1     4.198583     4A2     4.198589    19A1     4.198589  
      10B1     4.198870    10B2     4.198870    20A1     4.203687  
      11B1     6.346621    11B2     6.346621    21A1     6.366176  
       5A2     7.640382    22A1     7.640382    12B1     7.643690  
      12B2     7.643690    23A1     7.665764    24A1     9.109015  
      13B2     9.723878    13B1     9.723878    25A1     9.781457  
       6A2    11.831434    26A1    11.831434    14B1    11.833201  
      14B2    11.833201    27A1    11.863388    15B2    12.000303  
      15B1    12.000303     7A2    12.000308    28A1    12.000308  
      16B1    12.000478    16B2    12.000478    29A1    12.003704  
      30A1    13.042254  

    Final Occupation by Irrep:
             A1    A2    B1    B2 
    DOCC [     3,    0,    1,    1 ]
    NA   [     3,    0,    1,    1 ]
    NB   [     3,    0,    1,    1 ]

  @DF-RHF Final Energy:  -128.53328636309678

   => Energetics <=

    Nuclear Repulsion Energy =              0.0000000000000000
    One-Electron Energy =                -182.5346308114338285
    Two-Electron Energy =                  54.0013444483370577
    Total Energy =                       -128.5332863630967779

Computation Completed


Properties will be evaluated at   0.000000,   0.000000,   0.000000 [a0]

Properties computed using the SCF density matrix


 Multipole Moments:

 ------------------------------------------------------------------------------------
     Multipole            Electronic (a.u.)      Nuclear  (a.u.)        Total (a.u.)
 ------------------------------------------------------------------------------------

 L = 1.  Multiply by 2.5417464519 to convert [e a0] to [Debye]
 Dipole X            :          0.0000000            0.0000000            0.0000000
 Dipole Y            :          0.0000000            0.0000000            0.0000000
 Dipole Z            :         -9.4559967            9.4567330            0.0007363
 Magnitude           :                                                    0.0007363

 ------------------------------------------------------------------------------------

*** tstop() called on kichot at Mon Jun 15 06:35:40 2026
Module time:
	user time   =       0.24 seconds =       0.00 minutes
	system time =       0.00 seconds =       0.00 minutes
	total time  =          0 seconds =       0.00 minutes
Total time:
	user time   =       1.58 seconds =       0.03 minutes
	system time =       0.04 seconds =       0.00 minutes
	total time  =          2 seconds =       0.03 minutes

    Psi4 stopped on: Monday, 15 June 2026 06:35AM
    Psi4 wall time for execution: 0:00:00.27


    -----------------------------------------------------------------------
          Psi4: An Open-Source Ab Initio Electronic Structure Package
                               Psi4 1.11a1.dev42 

                         Git: Rev {master} 144882d 


    D. G. A. Smith, L. A. Burns, A. C. Simmonett, R. M. Parrish,
    M. C. Schieber, R. Galvelis, P. Kraus, H. Kruse, R. Di Remigio,
    A. Alenaizan, A. M. James, S. Lehtola, J. P. Misiewicz, M. Scheurer,
    R. A. Shaw, J. B. Schriber, Y. Xie, Z. L. Glick, D. A. Sirianni,
    J. S. O'Brien, J. M. Waldrop, A. Kumar, E. G. Hohenstein,
    B. P. Pritchard, B. R. Brooks, H. F. Schaefer III, A. Yu. Sokolov,
    K. Patkowski, A. E. DePrince III, U. Bozkaya, R. A. King,
    F. A. Evangelista, J. M. Turney, T. D. Crawford, C. D. Sherrill,
    J. Chem. Phys. 152(18) 184108 (2020). https://doi.org/10.1063/5.0006002

                            Additional Code Authors
    E. T. Seidl, C. L. Janssen, E. F. Valeev, M. L. Leininger,
    J. F. Gonthier, R. M. Richard, H. R. McAlexander, M. Saitow, X. Wang,
    P. Verma, M. H. Lechner, A. Jiang, S. Behnle, A. G. Heide,
    M. F. Herbst, D. L. Poole, T. Győri, E. C. Mitchell, J. P. Pederson,
    and A. M. Wallace

             Previous Authors, Complete List of Code Contributors,
                       and Citations for Specific Modules
    https://github.com/psi4/psi4/blob/master/codemeta.json
    https://github.com/psi4/psi4/graphs/contributors
    https://psicode.org/psi4manual/master/introduction.html#citing-psifour

    -----------------------------------------------------------------------


    Psi4 started on: Monday, 15 June 2026 06:35AM

    Process ID: 215698
    Host:       kichot
    PSIDATADIR: /opt/psi4/share/psi4
    Memory:     1.9 GiB
    Threads:    1
    Addons:     a̶d̶c̶c̶, a̶m̶b̶i̶t̶, b̶s̶e̶, c̶c̶t̶3̶, c̶f̶o̶u̶r̶, c̶h̶e̶m̶p̶s̶2̶, c̶p̶p̶e̶, d̶d̶x̶,
                d̶f̶t̶d̶3̶, d̶f̶t̶d̶4̶, d̶k̶h̶, e̶c̶p̶i̶n̶t̶, e̶i̶n̶s̶u̶m̶s̶, f̶o̶r̶t̶e̶,
                g̶a̶u̶x̶c̶, g̶c̶p̶, g̶d̶m̶a̶, g̶e̶o̶m̶e̶t̶r̶i̶c̶, g̶p̶u̶_̶d̶f̶c̶c̶,
                i̶n̶t̶e̶g̶r̶a̶t̶o̶r̶x̶x̶, i̶p̶i̶, l̶i̶b̶e̶f̶p̶, m̶d̶i̶, m̶p̶2̶d̶, m̶r̶c̶c̶,
                o̶o̶o̶, o̶p̶e̶n̶f̶e̶r̶m̶i̶o̶n̶p̶s̶i̶4̶, p̶c̶m̶s̶o̶l̶v̶e̶r̶,
                p̶s̶i̶4̶f̶o̶c̶k̶c̶i̶, p̶s̶i̶x̶a̶s̶, p̶y̶e̶i̶n̶s̶u̶m̶s̶, r̶e̶s̶p̶, s̶i̶m̶i̶n̶t̶,
                s̶n̶s̶m̶p̶2̶, v̶2̶r̶d̶m̶_̶c̶a̶s̶s̶c̶f̶

  ==> Input QCSchema <==

--------------------------------------------------------------------------
{'driver': 'energy',
 'extras': {'psiapi': True, 'wfn_qcvars_only': True},
 'id': None,
 'keywords': {'function_kwargs': {}},
 'model': {'basis': 'aug-cc-pvtz', 'method': 'scf'},
 'molecule': {'atom_labels': ['', ''],
              'atomic_numbers': [2, 10],
              'extras': {},
              'fix_com': True,
              'fix_orientation': True,
              'fragment_charges': [0.0, 0.0],
              'fragment_multiplicities': [1, 1],
              'fragments': [[0], [1]],
              'geometry': [0.0, 0.0, -4.7235050799945, 0.0, 0.0, 0.9456732963789],
              'mass_numbers': [4, 20],
              'masses': [4.00260325413, 19.9924401762],
              'molecular_charge': 0.0,
              'molecular_multiplicity': 1,
              'name': 'He-Ne ([0],[1])',
              'provenance': {'creator': 'QCElemental',
                             'routine': 'qcelemental.molparse.from_schema',
                             'version': '0.29.0'},
              'real': [True, False],
              'schema_name': 'qcschema_molecule',
              'schema_version': 2,
              'symbols': ['He', 'Ne'],
              'validated': True},
 'protocols': {'stdout': True},
 'provenance': {'creator': 'QCElemental', 'routine': 'qcelemental.models.results', 'version': '0.29.0'},
 'schema_name': 'qcschema_input',
 'schema_version': 1}
--------------------------------------------------------------------------

Scratch directory: /scratch/lukasz/psi4/
   => Libint2 <=

    Primary   basis highest AM E, G, H:  5, 4, 3
    Auxiliary basis highest AM E, G, H:  6, 5, 4
    Onebody   basis highest AM E, G, H:  6, 5, 4
    Solid Harmonics ordering:            Gaussian

*** tstart() called on kichot
*** at Mon Jun 15 06:35:40 2026

   => Loading Basis Set <=

    Name: AUG-CC-PVTZ
    Role: ORBITAL
    Keyword: BASIS
    atoms 1 entry HE         line    62 file /opt/psi4/share/psi4/basis/aug-cc-pvtz.gbs 
    atoms 2 entry NE         line   423 file /opt/psi4/share/psi4/basis/aug-cc-pvtz.gbs 


         ---------------------------------------------------------
                                   SCF
               by Justin Turney, Rob Parrish, Andy Simmonett
                          and Daniel G. A. Smith
                              RHF Reference
                        1 Threads,   1907 MiB Core
         ---------------------------------------------------------

  ==> Geometry <==

    Molecular point group: c2v
    Full point group: C_inf_v

    Geometry (in Bohr), charge = 0, multiplicity = 1:

       Center              X                  Y                   Z               Mass       
    ------------   -----------------  -----------------  -----------------  -----------------
         HE           0.000000000000     0.000000000000    -4.723505079995     4.002603254130
      Gh(NE)          0.000000000000     0.000000000000     0.945673296379    19.992440176200

  Running in c2v symmetry.

  Rotational constants: A = ************  B =      0.56165  C =      0.56165 [cm^-1]
  Rotational constants: A = ************  B =  16837.89826  C =  16837.89826 [MHz]
  Nuclear repulsion =    0.000000000000000

  Charge       = 0
  Multiplicity = 1
  Electrons    = 2
  Nalpha       = 1
  Nbeta        = 1

  ==> Algorithm <==

  SCF Algorithm Type is DF.
  DIIS enabled.
  MOM disabled.
  Fractional occupation disabled.
  Guess Type is SAD.
  Energy threshold   = 1.00e-06
  Density threshold  = 1.00e-06
  Integral threshold = 1.00e-12

  ==> Primary Basis <==

  Basis Set: AUG-CC-PVTZ
    Blend: AUG-CC-PVTZ
    Number of shells: 23
    Number of basis functions: 69
    Number of Cartesian functions: 80
    Spherical Harmonics?: true
    Max angular momentum: 3

   => Loading Basis Set <=

    Name: (AUG-CC-PVTZ AUX)
    Role: JKFIT
    Keyword: DF_BASIS_SCF
    atoms 1 entry HE         line    34 file /opt/psi4/share/psi4/basis/def2-universal-jkfit.gbs 
    atoms 2 entry NE         line   410 file /opt/psi4/share/psi4/basis/aug-cc-pvtz-jkfit.gbs 

  ==> Integral Setup <==

  DFHelper Memory: AOs need 0.005 GiB; user supplied 1.397 GiB. 
  SCF_SUBTYPE=INCORE selected. In-core MEM_DF algorithm will be used.
  Using in-core AOs.

  ==> MemDFJK: Density-Fitted J/K Matrices <==

    J tasked:                   Yes
    K tasked:                   Yes
    wK tasked:                   No
    OpenMP threads:               1
    Memory [MiB]:              1430
    Algorithm:                 Core
    Schwarz Cutoff:           1E-12
    Mask sparsity (%):       6.2592
    Fitting Condition:        1E-10

   => Auxiliary Basis Set <=

  Basis Set: (AUG-CC-PVTZ AUX)
    Blend: AUG-CC-PVTZ-JKFIT + DEF2-UNIVERSAL-JKFIT
    Number of shells: 39
    Number of basis functions: 127
    Number of Cartesian functions: 156
    Spherical Harmonics?: true
    Max angular momentum: 4

  Minimum eigenvalue in the overlap matrix is 2.6733112480E-02.
  Reciprocal condition number of the overlap matrix is 9.2445953788E-03.
    Using symmetric orthogonalization.

  ==> Pre-Iterations <==

  SCF Guess: Superposition of Atomic Densities via on-the-fly atomic UHF (no occupation information).

   -------------------------
    Irrep   Nso     Nmo    
   -------------------------
     A1        30      30 
     A2         7       7 
     B1        16      16 
     B2        16      16 
   -------------------------
    Total      69      69
   -------------------------

  ==> Iterations <==

                           Total Energy        Delta E     RMS |[F,P]|

   @DF-RHF iter SAD:    -2.86120522241954   -2.86121e+00   0.00000e+00 
   @DF-RHF iter   1:    -2.86120614115872   -9.18739e-07   3.26921e-06 DIIS
   @DF-RHF iter   2:    -2.86120615152754   -1.03688e-08   4.24174e-07 DIIS
  Energy and wave function converged.


  ==> Post-Iterations <==

    Orbital Energies [Eh]
    ---------------------

    Doubly Occupied:                                                      

       1A1    -0.917870  

    Virtual:                                                              

       2A1     0.102944     3A1     0.169775     1B1     0.212482  
       1B2     0.212482     4A1     0.239122     2B2     0.438067  
       2B1     0.438067     5A1     0.517227     6A1     0.838789  
       7A1     0.883441     3B2     0.996370     3B1     0.996370  
       8A1     1.016784     4B2     1.256036     4B1     1.256036  
       1A2     1.258911     9A1     1.258911    10A1     1.276570  
      11A1     1.520923     2A2     1.520923     5B1     1.533235  
       5B2     1.533235    12A1     1.606661     6B2     1.970965  
       6B1     1.970965    13A1     2.079424    14A1     3.756513  
       7B1     3.759186     7B2     3.759186    15A1     3.805498  
       3A2     4.529161    16A1     4.529161     8B2     4.529162  
       8B1     4.529162     9B1     4.529404     9B2     4.529404  
      17A1     4.530415     4A2     4.588902    18A1     4.588902  
      10B1     4.591800    10B2     4.591800    19A1     4.620526  
      20A1     4.863634    21A1     7.123623     5A2     7.123623  
      11B1     7.126820    11B2     7.126820    22A1     7.150109  
      12B2     8.227258    12B1     8.227258    23A1     8.291057  
      24A1    11.421354    13B1    13.973792    13B2    13.973792  
      25A1    13.973794     6A2    13.973794    14B1    13.973945  
      14B2    13.973945    26A1    13.976433     7A2    16.713274  
      27A1    16.713274    15B1    16.714707    15B2    16.714707  
      28A1    16.742457    16B1    17.859164    16B2    17.859164  
      29A1    17.879992    30A1    82.583881  

    Final Occupation by Irrep:
             A1    A2    B1    B2 
    DOCC [     1,    0,    0,    0 ]
    NA   [     1,    0,    0,    0 ]
    NB   [     1,    0,    0,    0 ]

  @DF-RHF Final Energy:    -2.86120615152754

   => Energetics <=

    Nuclear Repulsion Energy =              0.0000000000000000
    One-Electron Energy =                  -3.8866719234236116
    Two-Electron Energy =                   1.0254657718960742
    Total Energy =                         -2.8612061515275373

Computation Completed


Properties will be evaluated at   0.000000,   0.000000,   0.000000 [a0]

Properties computed using the SCF density matrix


 Multipole Moments:

 ------------------------------------------------------------------------------------
     Multipole            Electronic (a.u.)      Nuclear  (a.u.)        Total (a.u.)
 ------------------------------------------------------------------------------------

 L = 1.  Multiply by 2.5417464519 to convert [e a0] to [Debye]
 Dipole X            :          0.0000000            0.0000000            0.0000000
 Dipole Y            :          0.0000000            0.0000000            0.0000000
 Dipole Z            :          9.4470124           -9.4470102            0.0000022
 Magnitude           :                                                    0.0000022

 ------------------------------------------------------------------------------------

*** tstop() called on kichot at Mon Jun 15 06:35:40 2026
Module time:
	user time   =       0.17 seconds =       0.00 minutes
	system time =       0.01 seconds =       0.00 minutes
	total time  =          0 seconds =       0.00 minutes
Total time:
	user time   =       1.79 seconds =       0.03 minutes
	system time =       0.05 seconds =       0.00 minutes
	total time  =          2 seconds =       0.03 minutes

    Psi4 stopped on: Monday, 15 June 2026 06:35AM
    Psi4 wall time for execution: 0:00:00.21


    -----------------------------------------------------------------------
          Psi4: An Open-Source Ab Initio Electronic Structure Package
                               Psi4 1.11a1.dev42 

                         Git: Rev {master} 144882d 


    D. G. A. Smith, L. A. Burns, A. C. Simmonett, R. M. Parrish,
    M. C. Schieber, R. Galvelis, P. Kraus, H. Kruse, R. Di Remigio,
    A. Alenaizan, A. M. James, S. Lehtola, J. P. Misiewicz, M. Scheurer,
    R. A. Shaw, J. B. Schriber, Y. Xie, Z. L. Glick, D. A. Sirianni,
    J. S. O'Brien, J. M. Waldrop, A. Kumar, E. G. Hohenstein,
    B. P. Pritchard, B. R. Brooks, H. F. Schaefer III, A. Yu. Sokolov,
    K. Patkowski, A. E. DePrince III, U. Bozkaya, R. A. King,
    F. A. Evangelista, J. M. Turney, T. D. Crawford, C. D. Sherrill,
    J. Chem. Phys. 152(18) 184108 (2020). https://doi.org/10.1063/5.0006002

                            Additional Code Authors
    E. T. Seidl, C. L. Janssen, E. F. Valeev, M. L. Leininger,
    J. F. Gonthier, R. M. Richard, H. R. McAlexander, M. Saitow, X. Wang,
    P. Verma, M. H. Lechner, A. Jiang, S. Behnle, A. G. Heide,
    M. F. Herbst, D. L. Poole, T. Győri, E. C. Mitchell, J. P. Pederson,
    and A. M. Wallace

             Previous Authors, Complete List of Code Contributors,
                       and Citations for Specific Modules
    https://github.com/psi4/psi4/blob/master/codemeta.json
    https://github.com/psi4/psi4/graphs/contributors
    https://psicode.org/psi4manual/master/introduction.html#citing-psifour

    -----------------------------------------------------------------------


    Psi4 started on: Monday, 15 June 2026 06:35AM

    Process ID: 215698
    Host:       kichot
    PSIDATADIR: /opt/psi4/share/psi4
    Memory:     1.9 GiB
    Threads:    1
    Addons:     a̶d̶c̶c̶, a̶m̶b̶i̶t̶, b̶s̶e̶, c̶c̶t̶3̶, c̶f̶o̶u̶r̶, c̶h̶e̶m̶p̶s̶2̶, c̶p̶p̶e̶, d̶d̶x̶,
                d̶f̶t̶d̶3̶, d̶f̶t̶d̶4̶, d̶k̶h̶, e̶c̶p̶i̶n̶t̶, e̶i̶n̶s̶u̶m̶s̶, f̶o̶r̶t̶e̶,
                g̶a̶u̶x̶c̶, g̶c̶p̶, g̶d̶m̶a̶, g̶e̶o̶m̶e̶t̶r̶i̶c̶, g̶p̶u̶_̶d̶f̶c̶c̶,
                i̶n̶t̶e̶g̶r̶a̶t̶o̶r̶x̶x̶, i̶p̶i̶, l̶i̶b̶e̶f̶p̶, m̶d̶i̶, m̶p̶2̶d̶, m̶r̶c̶c̶,
                o̶o̶o̶, o̶p̶e̶n̶f̶e̶r̶m̶i̶o̶n̶p̶s̶i̶4̶, p̶c̶m̶s̶o̶l̶v̶e̶r̶,
                p̶s̶i̶4̶f̶o̶c̶k̶c̶i̶, p̶s̶i̶x̶a̶s̶, p̶y̶e̶i̶n̶s̶u̶m̶s̶, r̶e̶s̶p̶, s̶i̶m̶i̶n̶t̶,
                s̶n̶s̶m̶p̶2̶, v̶2̶r̶d̶m̶_̶c̶a̶s̶s̶c̶f̶

  ==> Input QCSchema <==

--------------------------------------------------------------------------
{'driver': 'energy',
 'extras': {'psiapi': True, 'wfn_qcvars_only': True},
 'id': None,
 'keywords': {'function_kwargs': {}},
 'model': {'basis': 'aug-cc-pvtz', 'method': 'scf'},
 'molecule': {'atom_labels': ['', ''],
              'atomic_numbers': [2, 10],
              'extras': {},
              'fix_com': True,
              'fix_orientation': True,
              'fragment_charges': [0.0, 0.0],
              'fragment_multiplicities': [1, 1],
              'fragments': [[0], [1]],
              'geometry': [0.0, 0.0, -4.7235050799945, 0.0, 0.0, 0.9456732963789],
              'mass_numbers': [4, 20],
              'masses': [4.00260325413, 19.9924401762],
              'molecular_charge': 0.0,
              'molecular_multiplicity': 1,
              'name': 'He-Ne ([0, 1],[])',
              'provenance': {'creator': 'QCElemental',
                             'routine': 'qcelemental.molparse.from_schema',
                             'version': '0.29.0'},
              'real': [True, True],
              'schema_name': 'qcschema_molecule',
              'schema_version': 2,
              'symbols': ['He', 'Ne'],
              'validated': True},
 'protocols': {'stdout': True},
 'provenance': {'creator': 'QCElemental', 'routine': 'qcelemental.models.results', 'version': '0.29.0'},
 'schema_name': 'qcschema_input',
 'schema_version': 1}
--------------------------------------------------------------------------

Scratch directory: /scratch/lukasz/psi4/
   => Libint2 <=

    Primary   basis highest AM E, G, H:  5, 4, 3
    Auxiliary basis highest AM E, G, H:  6, 5, 4
    Onebody   basis highest AM E, G, H:  6, 5, 4
    Solid Harmonics ordering:            Gaussian

*** tstart() called on kichot
*** at Mon Jun 15 06:35:40 2026

   => Loading Basis Set <=

    Name: AUG-CC-PVTZ
    Role: ORBITAL
    Keyword: BASIS
    atoms 1 entry HE         line    62 file /opt/psi4/share/psi4/basis/aug-cc-pvtz.gbs 
    atoms 2 entry NE         line   423 file /opt/psi4/share/psi4/basis/aug-cc-pvtz.gbs 


         ---------------------------------------------------------
                                   SCF
               by Justin Turney, Rob Parrish, Andy Simmonett
                          and Daniel G. A. Smith
                              RHF Reference
                        1 Threads,   1907 MiB Core
         ---------------------------------------------------------

  ==> Geometry <==

    Molecular point group: c2v
    Full point group: C_inf_v

    Geometry (in Bohr), charge = 0, multiplicity = 1:

       Center              X                  Y                   Z               Mass       
    ------------   -----------------  -----------------  -----------------  -----------------
         HE           0.000000000000     0.000000000000    -4.723505079995     4.002603254130
         NE           0.000000000000     0.000000000000     0.945673296379    19.992440176200

  Running in c2v symmetry.

  Rotational constants: A = ************  B =      0.56165  C =      0.56165 [cm^-1]
  Rotational constants: A = ************  B =  16837.89826  C =  16837.89826 [MHz]
  Nuclear repulsion =    3.527848071133385

  Charge       = 0
  Multiplicity = 1
  Electrons    = 12
  Nalpha       = 6
  Nbeta        = 6

  ==> Algorithm <==

  SCF Algorithm Type is DF.
  DIIS enabled.
  MOM disabled.
  Fractional occupation disabled.
  Guess Type is SAD.
  Energy threshold   = 1.00e-06
  Density threshold  = 1.00e-06
  Integral threshold = 1.00e-12

  ==> Primary Basis <==

  Basis Set: AUG-CC-PVTZ
    Blend: AUG-CC-PVTZ
    Number of shells: 23
    Number of basis functions: 69
    Number of Cartesian functions: 80
    Spherical Harmonics?: true
    Max angular momentum: 3

   => Loading Basis Set <=

    Name: (AUG-CC-PVTZ AUX)
    Role: JKFIT
    Keyword: DF_BASIS_SCF
    atoms 1 entry HE         line    34 file /opt/psi4/share/psi4/basis/def2-universal-jkfit.gbs 
    atoms 2 entry NE         line   410 file /opt/psi4/share/psi4/basis/aug-cc-pvtz-jkfit.gbs 

  ==> Integral Setup <==

  DFHelper Memory: AOs need 0.005 GiB; user supplied 1.397 GiB. 
  SCF_SUBTYPE=INCORE selected. In-core MEM_DF algorithm will be used.
  Using in-core AOs.

  ==> MemDFJK: Density-Fitted J/K Matrices <==

    J tasked:                   Yes
    K tasked:                   Yes
    wK tasked:                   No
    OpenMP threads:               1
    Memory [MiB]:              1430
    Algorithm:                 Core
    Schwarz Cutoff:           1E-12
    Mask sparsity (%):       6.2592
    Fitting Condition:        1E-10

   => Auxiliary Basis Set <=

  Basis Set: (AUG-CC-PVTZ AUX)
    Blend: AUG-CC-PVTZ-JKFIT + DEF2-UNIVERSAL-JKFIT
    Number of shells: 39
    Number of basis functions: 127
    Number of Cartesian functions: 156
    Spherical Harmonics?: true
    Max angular momentum: 4

  Minimum eigenvalue in the overlap matrix is 2.6733112480E-02.
  Reciprocal condition number of the overlap matrix is 9.2445953788E-03.
    Using symmetric orthogonalization.

  ==> Pre-Iterations <==

  SCF Guess: Superposition of Atomic Densities via on-the-fly atomic UHF (no occupation information).

   -------------------------
    Irrep   Nso     Nmo    
   -------------------------
     A1        30      30 
     A2         7       7 
     B1        16      16 
     B2        16      16 
   -------------------------
    Total      69      69
   -------------------------

  ==> Iterations <==

                           Total Energy        Delta E     RMS |[F,P]|

   @DF-RHF iter SAD:  -131.39455938404586   -1.31395e+02   0.00000e+00 
   @DF-RHF iter   1:  -131.39443287309527    1.26511e-04   4.71482e-05 DIIS
   @DF-RHF iter   2:  -131.39443347726248   -6.04167e-07   2.20051e-05 DIIS
   @DF-RHF iter   3:  -131.39443360694389   -1.29681e-07   1.63265e-06 DIIS
   @DF-RHF iter   4:  -131.39443360877576   -1.83186e-09   1.75564e-07 DIIS
  Energy and wave function converged.


  ==> Post-Iterations <==

    Orbital Energies [Eh]
    ---------------------

    Doubly Occupied:                                                      

       1A1   -32.778909     2A1    -1.933351     3A1    -0.917931  
       1B1    -0.851134     1B2    -0.851134     4A1    -0.851042  

    Virtual:                                                              

       5A1     0.113581     2B1     0.238207     2B2     0.238207  
       6A1     0.241143     7A1     0.277021     3B1     0.439446  
       3B2     0.439446     8A1     0.541911     9A1     0.836723  
       4B1     1.131479     4B2     1.131479    10A1     1.131983  
       1A2     1.131983    11A1     1.157616     5B1     1.355469  
       5B2     1.355469    12A1     1.380571     2A2     1.520963  
      13A1     1.520963     6B2     1.532715     6B1     1.532715  
      14A1     1.582297     7B1     1.970656     7B2     1.970656  
      15A1     1.994345    16A1     2.134432    17A1     3.610400  
       3A2     3.610400     8B1     3.613724     8B2     3.613724  
      18A1     3.665636     9B2     4.198600     9B1     4.198600  
       4A2     4.198605    19A1     4.198605    10B1     4.198865  
      10B2     4.198865    20A1     4.202131    21A1     4.841153  
      11B1     6.346566    11B2     6.346566    22A1     6.365960  
       5A2     7.123729    23A1     7.123729    12B1     7.126979  
      12B2     7.126979    24A1     7.149040    13B2     8.227340  
      13B1     8.227340    25A1     8.289505     6A2    11.831490  
      26A1    11.831490    14B2    11.833183    14B1    11.833183  
      27A1    11.861666    15B2    12.000343    15B1    12.000343  
       7A2    12.000355    28A1    12.000355    16B1    12.000520  
      16B2    12.000520    29A1    12.003431    30A1    13.041519  

    Final Occupation by Irrep:
             A1    A2    B1    B2 
    DOCC [     4,    0,    1,    1 ]
    NA   [     4,    0,    1,    1 ]
    NB   [     4,    0,    1,    1 ]

  @DF-RHF Final Energy:  -131.39443360877576

   => Energetics <=

    Nuclear Repulsion Energy =              3.5278480711333855
    One-Electron Energy =                -193.4775572637874745
    Two-Electron Energy =                  58.5552755838783341
    Total Energy =                       -131.3944336087757563

Computation Completed


Properties will be evaluated at   0.000000,   0.000000,   0.000000 [a0]

Properties computed using the SCF density matrix


 Multipole Moments:

 ------------------------------------------------------------------------------------
     Multipole            Electronic (a.u.)      Nuclear  (a.u.)        Total (a.u.)
 ------------------------------------------------------------------------------------

 L = 1.  Multiply by 2.5417464519 to convert [e a0] to [Debye]
 Dipole X            :          0.0000000            0.0000000            0.0000000
 Dipole Y            :          0.0000000            0.0000000            0.0000000
 Dipole Z            :         -0.0089989            0.0097228            0.0007239
 Magnitude           :                                                    0.0007239

 ------------------------------------------------------------------------------------

*** tstop() called on kichot at Mon Jun 15 06:35:40 2026
Module time:
	user time   =       0.24 seconds =       0.00 minutes
	system time =       0.00 seconds =       0.00 minutes
	total time  =          0 seconds =       0.00 minutes
Total time:
	user time   =       2.07 seconds =       0.03 minutes
	system time =       0.05 seconds =       0.00 minutes
	total time  =          2 seconds =       0.03 minutes

    Psi4 stopped on: Monday, 15 June 2026 06:35AM
    Psi4 wall time for execution: 0:00:00.27


  //>>>>>>>>>>>>>>>>>>>>>>>>>>>>>>>>>>>//
  //          ManyBody Results         //
  //<<<<<<<<<<<<<<<<<<<<<<<<<<<<<<<<<<<//


   ==> N-Body: Counterpoise Corrected (CP) energies <==

              MC n-Body  Total Energy            Interaction Energy                          N-body Contribution to Interaction Energy
                         [Eh]                    [Eh]                  [kcal/mol]            [Eh]                  [kcal/mol]
              §A  1        N/A                   0.000000000000        0.000000000000        0.000000000000        0.000000000000
     FULL/RTN §A  2        N/A                   0.000058905849        0.036963978033        0.000058905849        0.036963978033

   MC Legend: §A: "(auto)"


Scratch directory: /scratch/lukasz/psi4/

  //>>>>>>>>>>>>>>>>>>>>>>>>>>>>>>>>>>>//
  //   ManyBody Setup: N-Body Levels 2 //
  //<<<<<<<<<<<<<<<<<<<<<<<<<<<<<<<<<<<//

    Model chemistry "(auto)" (§A):          3
        Number of 1-body computations:      2 (nocp: 0, cp: 2, vmfc_compute: 0)
        Number of 2-body computations:      1 (nocp: 0, cp: 1, vmfc_compute: 0)

    -----------------------------------------------------------------------
          Psi4: An Open-Source Ab Initio Electronic Structure Package
                               Psi4 1.11a1.dev42 

                         Git: Rev {master} 144882d 


    D. G. A. Smith, L. A. Burns, A. C. Simmonett, R. M. Parrish,
    M. C. Schieber, R. Galvelis, P. Kraus, H. Kruse, R. Di Remigio,
    A. Alenaizan, A. M. James, S. Lehtola, J. P. Misiewicz, M. Scheurer,
    R. A. Shaw, J. B. Schriber, Y. Xie, Z. L. Glick, D. A. Sirianni,
    J. S. O'Brien, J. M. Waldrop, A. Kumar, E. G. Hohenstein,
    B. P. Pritchard, B. R. Brooks, H. F. Schaefer III, A. Yu. Sokolov,
    K. Patkowski, A. E. DePrince III, U. Bozkaya, R. A. King,
    F. A. Evangelista, J. M. Turney, T. D. Crawford, C. D. Sherrill,
    J. Chem. Phys. 152(18) 184108 (2020). https://doi.org/10.1063/5.0006002

                            Additional Code Authors
    E. T. Seidl, C. L. Janssen, E. F. Valeev, M. L. Leininger,
    J. F. Gonthier, R. M. Richard, H. R. McAlexander, M. Saitow, X. Wang,
    P. Verma, M. H. Lechner, A. Jiang, S. Behnle, A. G. Heide,
    M. F. Herbst, D. L. Poole, T. Győri, E. C. Mitchell, J. P. Pederson,
    and A. M. Wallace

             Previous Authors, Complete List of Code Contributors,
                       and Citations for Specific Modules
    https://github.com/psi4/psi4/blob/master/codemeta.json
    https://github.com/psi4/psi4/graphs/contributors
    https://psicode.org/psi4manual/master/introduction.html#citing-psifour

    -----------------------------------------------------------------------


    Psi4 started on: Monday, 15 June 2026 06:35AM

    Process ID: 215698
    Host:       kichot
    PSIDATADIR: /opt/psi4/share/psi4
    Memory:     1.9 GiB
    Threads:    1
    Addons:     a̶d̶c̶c̶, a̶m̶b̶i̶t̶, b̶s̶e̶, c̶c̶t̶3̶, c̶f̶o̶u̶r̶, c̶h̶e̶m̶p̶s̶2̶, c̶p̶p̶e̶, d̶d̶x̶,
                d̶f̶t̶d̶3̶, d̶f̶t̶d̶4̶, d̶k̶h̶, e̶c̶p̶i̶n̶t̶, e̶i̶n̶s̶u̶m̶s̶, f̶o̶r̶t̶e̶,
                g̶a̶u̶x̶c̶, g̶c̶p̶, g̶d̶m̶a̶, g̶e̶o̶m̶e̶t̶r̶i̶c̶, g̶p̶u̶_̶d̶f̶c̶c̶,
                i̶n̶t̶e̶g̶r̶a̶t̶o̶r̶x̶x̶, i̶p̶i̶, l̶i̶b̶e̶f̶p̶, m̶d̶i̶, m̶p̶2̶d̶, m̶r̶c̶c̶,
                o̶o̶o̶, o̶p̶e̶n̶f̶e̶r̶m̶i̶o̶n̶p̶s̶i̶4̶, p̶c̶m̶s̶o̶l̶v̶e̶r̶,
                p̶s̶i̶4̶f̶o̶c̶k̶c̶i̶, p̶s̶i̶x̶a̶s̶, p̶y̶e̶i̶n̶s̶u̶m̶s̶, r̶e̶s̶p̶, s̶i̶m̶i̶n̶t̶,
                s̶n̶s̶m̶p̶2̶, v̶2̶r̶d̶m̶_̶c̶a̶s̶s̶c̶f̶

  ==> Input QCSchema <==

--------------------------------------------------------------------------
{'driver': 'energy',
 'extras': {'psiapi': True, 'wfn_qcvars_only': True},
 'id': None,
 'keywords': {'function_kwargs': {}},
 'model': {'basis': 'aug-cc-pvtz', 'method': 'mp2'},
 'molecule': {'atom_labels': ['', ''],
              'atomic_numbers': [2, 10],
              'extras': {},
              'fix_com': True,
              'fix_orientation': True,
              'fragment_charges': [0.0, 0.0],
              'fragment_multiplicities': [1, 1],
              'fragments': [[0], [1]],
              'geometry': [0.0, 0.0, -4.7235050799945, 0.0, 0.0, 0.9456732963789],
              'mass_numbers': [4, 20],
              'masses': [4.00260325413, 19.9924401762],
              'molecular_charge': 0.0,
              'molecular_multiplicity': 1,
              'name': 'He-Ne ([1],[0])',
              'provenance': {'creator': 'QCElemental',
                             'routine': 'qcelemental.molparse.from_schema',
                             'version': '0.29.0'},
              'real': [False, True],
              'schema_name': 'qcschema_molecule',
              'schema_version': 2,
              'symbols': ['He', 'Ne'],
              'validated': True},
 'protocols': {'stdout': True},
 'provenance': {'creator': 'QCElemental', 'routine': 'qcelemental.models.results', 'version': '0.29.0'},
 'schema_name': 'qcschema_input',
 'schema_version': 1}
--------------------------------------------------------------------------

Scratch directory: /scratch/lukasz/psi4/
    SCF Algorithm Type (re)set to DF.
   => Libint2 <=

    Primary   basis highest AM E, G, H:  5, 4, 3
    Auxiliary basis highest AM E, G, H:  6, 5, 4
    Onebody   basis highest AM E, G, H:  6, 5, 4
    Solid Harmonics ordering:            Gaussian

*** tstart() called on kichot
*** at Mon Jun 15 06:35:41 2026

   => Loading Basis Set <=

    Name: AUG-CC-PVTZ
    Role: ORBITAL
    Keyword: BASIS
    atoms 1 entry HE         line    62 file /opt/psi4/share/psi4/basis/aug-cc-pvtz.gbs 
    atoms 2 entry NE         line   423 file /opt/psi4/share/psi4/basis/aug-cc-pvtz.gbs 


         ---------------------------------------------------------
                                   SCF
               by Justin Turney, Rob Parrish, Andy Simmonett
                          and Daniel G. A. Smith
                              RHF Reference
                        1 Threads,   1907 MiB Core
         ---------------------------------------------------------

  ==> Geometry <==

    Molecular point group: c2v
    Full point group: C_inf_v

    Geometry (in Bohr), charge = 0, multiplicity = 1:

       Center              X                  Y                   Z               Mass       
    ------------   -----------------  -----------------  -----------------  -----------------
      Gh(HE)          0.000000000000     0.000000000000    -4.723505079995     4.002603254130
         NE           0.000000000000     0.000000000000     0.945673296379    19.992440176200

  Running in c2v symmetry.

  Rotational constants: A = ************  B =      0.56165  C =      0.56165 [cm^-1]
  Rotational constants: A = ************  B =  16837.89826  C =  16837.89826 [MHz]
  Nuclear repulsion =    0.000000000000000

  Charge       = 0
  Multiplicity = 1
  Electrons    = 10
  Nalpha       = 5
  Nbeta        = 5

  ==> Algorithm <==

  SCF Algorithm Type is DF.
  DIIS enabled.
  MOM disabled.
  Fractional occupation disabled.
  Guess Type is SAD.
  Energy threshold   = 1.00e-08
  Density threshold  = 1.00e-08
  Integral threshold = 1.00e-12

  ==> Primary Basis <==

  Basis Set: AUG-CC-PVTZ
    Blend: AUG-CC-PVTZ
    Number of shells: 23
    Number of basis functions: 69
    Number of Cartesian functions: 80
    Spherical Harmonics?: true
    Max angular momentum: 3

   => Loading Basis Set <=

    Name: (AUG-CC-PVTZ AUX)
    Role: JKFIT
    Keyword: DF_BASIS_SCF
    atoms 1 entry HE         line    34 file /opt/psi4/share/psi4/basis/def2-universal-jkfit.gbs 
    atoms 2 entry NE         line   410 file /opt/psi4/share/psi4/basis/aug-cc-pvtz-jkfit.gbs 

  ==> Integral Setup <==

  DFHelper Memory: AOs need 0.005 GiB; user supplied 1.397 GiB. 
  SCF_SUBTYPE=INCORE selected. In-core MEM_DF algorithm will be used.
  Using in-core AOs.

  ==> MemDFJK: Density-Fitted J/K Matrices <==

    J tasked:                   Yes
    K tasked:                   Yes
    wK tasked:                   No
    OpenMP threads:               1
    Memory [MiB]:              1430
    Algorithm:                 Core
    Schwarz Cutoff:           1E-12
    Mask sparsity (%):       6.2592
    Fitting Condition:        1E-10

   => Auxiliary Basis Set <=

  Basis Set: (AUG-CC-PVTZ AUX)
    Blend: AUG-CC-PVTZ-JKFIT + DEF2-UNIVERSAL-JKFIT
    Number of shells: 39
    Number of basis functions: 127
    Number of Cartesian functions: 156
    Spherical Harmonics?: true
    Max angular momentum: 4

  Minimum eigenvalue in the overlap matrix is 2.6733112480E-02.
  Reciprocal condition number of the overlap matrix is 9.2445953788E-03.
    Using symmetric orthogonalization.

  ==> Pre-Iterations <==

  SCF Guess: Superposition of Atomic Densities via on-the-fly atomic UHF (no occupation information).

   -------------------------
    Irrep   Nso     Nmo    
   -------------------------
     A1        30      30 
     A2         7       7 
     B1        16      16 
     B2        16      16 
   -------------------------
    Total      69      69
   -------------------------

  ==> Iterations <==

                           Total Energy        Delta E     RMS |[F,P]|

   @DF-RHF iter SAD:  -128.53326120683002   -1.28533e+02   0.00000e+00 
   @DF-RHF iter   1:  -128.53328555149210   -2.43447e-05   4.63594e-05 DIIS
   @DF-RHF iter   2:  -128.53328623758543   -6.86093e-07   2.13093e-05 DIIS
   @DF-RHF iter   3:  -128.53328636069287   -1.23107e-07   1.85488e-06 DIIS
   @DF-RHF iter   4:  -128.53328636309678   -2.40391e-09   1.08235e-07 DIIS
   @DF-RHF iter   5:  -128.53328636310786   -1.10845e-11   1.34258e-08 DIIS
   @DF-RHF iter   6:  -128.53328636310837   -5.11591e-13   1.19123e-09 DIIS
  Energy and wave function converged.


  ==> Post-Iterations <==

    Orbital Energies [Eh]
    ---------------------

    Doubly Occupied:                                                      

       1A1   -32.778997     2A1    -1.933396     3A1    -0.851198  
       1B1    -0.851189     1B2    -0.851189  

    Virtual:                                                              

       4A1     0.073189     5A1     0.237623     2B1     0.239172  
       2B2     0.239172     6A1     0.283514     7A1     0.434128  
       3B1     0.480407     3B2     0.480407     8A1     0.580478  
       9A1     1.131976     1A2     1.131976     4B2     1.132447  
       4B1     1.132447    10A1     1.148609     5B1     1.356194  
       5B2     1.356194    11A1     1.380798    12A1     1.570635  
       2A2     1.570635     6B1     1.581765     6B2     1.581765  
      13A1     1.630300    14A1     1.745946    15A1     2.048849  
       7B2     2.289735     7B1     2.289735    16A1     2.391121  
      17A1     3.610356     3A2     3.610356     8B2     3.613922  
       8B1     3.613922    18A1     3.673385     9B2     4.198583  
       9B1     4.198583     4A2     4.198589    19A1     4.198589  
      10B1     4.198870    10B2     4.198870    20A1     4.203687  
      11B1     6.346621    11B2     6.346621    21A1     6.366176  
      22A1     7.640382     5A2     7.640382    12B1     7.643690  
      12B2     7.643690    23A1     7.665764    24A1     9.109015  
      13B1     9.723878    13B2     9.723878    25A1     9.781457  
       6A2    11.831434    26A1    11.831434    14B2    11.833201  
      14B1    11.833201    27A1    11.863388    15B2    12.000303  
      15B1    12.000303     7A2    12.000308    28A1    12.000308  
      16B1    12.000479    16B2    12.000479    29A1    12.003704  
      30A1    13.042254  

    Final Occupation by Irrep:
             A1    A2    B1    B2 
    DOCC [     3,    0,    1,    1 ]
    NA   [     3,    0,    1,    1 ]
    NB   [     3,    0,    1,    1 ]

  @DF-RHF Final Energy:  -128.53328636310837

   => Energetics <=

    Nuclear Repulsion Energy =              0.0000000000000000
    One-Electron Energy =                -182.5346346035009617
    Two-Electron Energy =                  54.0013482403925806
    Total Energy =                       -128.5332863631083740

Computation Completed


Properties will be evaluated at   0.000000,   0.000000,   0.000000 [a0]

Properties computed using the SCF density matrix


 Multipole Moments:

 ------------------------------------------------------------------------------------
     Multipole            Electronic (a.u.)      Nuclear  (a.u.)        Total (a.u.)
 ------------------------------------------------------------------------------------

 L = 1.  Multiply by 2.5417464519 to convert [e a0] to [Debye]
 Dipole X            :          0.0000000            0.0000000            0.0000000
 Dipole Y            :          0.0000000            0.0000000            0.0000000
 Dipole Z            :         -9.4559968            9.4567330            0.0007362
 Magnitude           :                                                    0.0007362

 ------------------------------------------------------------------------------------

*** tstop() called on kichot at Mon Jun 15 06:35:41 2026
Module time:
	user time   =       0.25 seconds =       0.00 minutes
	system time =       0.01 seconds =       0.00 minutes
	total time  =          0 seconds =       0.00 minutes
Total time:
	user time   =       2.43 seconds =       0.04 minutes
	system time =       0.06 seconds =       0.00 minutes
	total time  =          3 seconds =       0.05 minutes

*** tstart() called on kichot
*** at Mon Jun 15 06:35:41 2026


  //>>>>>>>>>>>>>>>>>>>>>>>>>>>>>>>>>>>//
  //               DFMP2               //
  //<<<<<<<<<<<<<<<<<<<<<<<<<<<<<<<<<<<//

   => Loading Basis Set <=

    Name: (AUG-CC-PVTZ AUX)
    Role: RIFIT
    Keyword: DF_BASIS_MP2
    atoms 1 entry HE         line    60 file /opt/psi4/share/psi4/basis/aug-cc-pvtz-ri.gbs 
    atoms 2 entry NE         line   380 file /opt/psi4/share/psi4/basis/aug-cc-pvtz-ri.gbs 

	 --------------------------------------------------------
	                          DF-MP2                         
	      2nd-Order Density-Fitted Moller-Plesset Theory     
	              RMP2 Wavefunction,   1 Threads             
	                                                         
	        Rob Parrish, Justin Turney, Andy Simmonett,      
	           Ed Hohenstein, and C. David Sherrill          
	 --------------------------------------------------------

   => Auxiliary Basis Set <=

  Basis Set: (AUG-CC-PVTZ AUX)
    Blend: AUG-CC-PVTZ-RI
    Number of shells: 42
    Number of basis functions: 142
    Number of Cartesian functions: 175
    Spherical Harmonics?: true
    Max angular momentum: 4

	 --------------------------------------------------------
	                 NBF =    69, NAUX =   142
	 --------------------------------------------------------
	   CLASS    FOCC     OCC    AOCC    AVIR     VIR    FVIR
	   PAIRS       0       5       5      64      64       0
	 --------------------------------------------------------

	-----------------------------------------------------------
	 ==================> DF-MP2 Energies <==================== 
	-----------------------------------------------------------
	 Reference Energy          =    -128.5332863631083740 [Eh]
	 Singles Energy            =      -0.0000000000000000 [Eh]
	 Same-Spin Energy          =      -0.0746720367302293 [Eh]
	 Opposite-Spin Energy      =      -0.2112081615808304 [Eh]
	 Correlation Energy        =      -0.2858801983110597 [Eh]
	 Total Energy              =    -128.8191665614194221 [Eh]
	-----------------------------------------------------------
	 ================> DF-SCS-MP2 Energies <================== 
	-----------------------------------------------------------
	 SCS Same-Spin Scale       =       0.3333333333333333 [-]
	 SCS Opposite-Spin Scale   =       1.2000000000000000 [-]
	 SCS Same-Spin Energy      =      -0.0248906789100764 [Eh]
	 SCS Opposite-Spin Energy  =      -0.2534497938969964 [Eh]
	 SCS Correlation Energy    =      -0.2783404728070729 [Eh]
	 SCS Total Energy          =    -128.8116268359154333 [Eh]
	-----------------------------------------------------------


*** tstop() called on kichot at Mon Jun 15 06:35:41 2026
Module time:
	user time   =       0.04 seconds =       0.00 minutes
	system time =       0.00 seconds =       0.00 minutes
	total time  =          0 seconds =       0.00 minutes
Total time:
	user time   =       2.47 seconds =       0.04 minutes
	system time =       0.06 seconds =       0.00 minutes
	total time  =          3 seconds =       0.05 minutes

    Psi4 stopped on: Monday, 15 June 2026 06:35AM
    Psi4 wall time for execution: 0:00:00.33


    -----------------------------------------------------------------------
          Psi4: An Open-Source Ab Initio Electronic Structure Package
                               Psi4 1.11a1.dev42 

                         Git: Rev {master} 144882d 


    D. G. A. Smith, L. A. Burns, A. C. Simmonett, R. M. Parrish,
    M. C. Schieber, R. Galvelis, P. Kraus, H. Kruse, R. Di Remigio,
    A. Alenaizan, A. M. James, S. Lehtola, J. P. Misiewicz, M. Scheurer,
    R. A. Shaw, J. B. Schriber, Y. Xie, Z. L. Glick, D. A. Sirianni,
    J. S. O'Brien, J. M. Waldrop, A. Kumar, E. G. Hohenstein,
    B. P. Pritchard, B. R. Brooks, H. F. Schaefer III, A. Yu. Sokolov,
    K. Patkowski, A. E. DePrince III, U. Bozkaya, R. A. King,
    F. A. Evangelista, J. M. Turney, T. D. Crawford, C. D. Sherrill,
    J. Chem. Phys. 152(18) 184108 (2020). https://doi.org/10.1063/5.0006002

                            Additional Code Authors
    E. T. Seidl, C. L. Janssen, E. F. Valeev, M. L. Leininger,
    J. F. Gonthier, R. M. Richard, H. R. McAlexander, M. Saitow, X. Wang,
    P. Verma, M. H. Lechner, A. Jiang, S. Behnle, A. G. Heide,
    M. F. Herbst, D. L. Poole, T. Győri, E. C. Mitchell, J. P. Pederson,
    and A. M. Wallace

             Previous Authors, Complete List of Code Contributors,
                       and Citations for Specific Modules
    https://github.com/psi4/psi4/blob/master/codemeta.json
    https://github.com/psi4/psi4/graphs/contributors
    https://psicode.org/psi4manual/master/introduction.html#citing-psifour

    -----------------------------------------------------------------------


    Psi4 started on: Monday, 15 June 2026 06:35AM

    Process ID: 215698
    Host:       kichot
    PSIDATADIR: /opt/psi4/share/psi4
    Memory:     1.9 GiB
    Threads:    1
    Addons:     a̶d̶c̶c̶, a̶m̶b̶i̶t̶, b̶s̶e̶, c̶c̶t̶3̶, c̶f̶o̶u̶r̶, c̶h̶e̶m̶p̶s̶2̶, c̶p̶p̶e̶, d̶d̶x̶,
                d̶f̶t̶d̶3̶, d̶f̶t̶d̶4̶, d̶k̶h̶, e̶c̶p̶i̶n̶t̶, e̶i̶n̶s̶u̶m̶s̶, f̶o̶r̶t̶e̶,
                g̶a̶u̶x̶c̶, g̶c̶p̶, g̶d̶m̶a̶, g̶e̶o̶m̶e̶t̶r̶i̶c̶, g̶p̶u̶_̶d̶f̶c̶c̶,
                i̶n̶t̶e̶g̶r̶a̶t̶o̶r̶x̶x̶, i̶p̶i̶, l̶i̶b̶e̶f̶p̶, m̶d̶i̶, m̶p̶2̶d̶, m̶r̶c̶c̶,
                o̶o̶o̶, o̶p̶e̶n̶f̶e̶r̶m̶i̶o̶n̶p̶s̶i̶4̶, p̶c̶m̶s̶o̶l̶v̶e̶r̶,
                p̶s̶i̶4̶f̶o̶c̶k̶c̶i̶, p̶s̶i̶x̶a̶s̶, p̶y̶e̶i̶n̶s̶u̶m̶s̶, r̶e̶s̶p̶, s̶i̶m̶i̶n̶t̶,
                s̶n̶s̶m̶p̶2̶, v̶2̶r̶d̶m̶_̶c̶a̶s̶s̶c̶f̶

  ==> Input QCSchema <==

--------------------------------------------------------------------------
{'driver': 'energy',
 'extras': {'psiapi': True, 'wfn_qcvars_only': True},
 'id': None,
 'keywords': {'function_kwargs': {}},
 'model': {'basis': 'aug-cc-pvtz', 'method': 'mp2'},
 'molecule': {'atom_labels': ['', ''],
              'atomic_numbers': [2, 10],
              'extras': {},
              'fix_com': True,
              'fix_orientation': True,
              'fragment_charges': [0.0, 0.0],
              'fragment_multiplicities': [1, 1],
              'fragments': [[0], [1]],
              'geometry': [0.0, 0.0, -4.7235050799945, 0.0, 0.0, 0.9456732963789],
              'mass_numbers': [4, 20],
              'masses': [4.00260325413, 19.9924401762],
              'molecular_charge': 0.0,
              'molecular_multiplicity': 1,
              'name': 'He-Ne ([0],[1])',
              'provenance': {'creator': 'QCElemental',
                             'routine': 'qcelemental.molparse.from_schema',
                             'version': '0.29.0'},
              'real': [True, False],
              'schema_name': 'qcschema_molecule',
              'schema_version': 2,
              'symbols': ['He', 'Ne'],
              'validated': True},
 'protocols': {'stdout': True},
 'provenance': {'creator': 'QCElemental', 'routine': 'qcelemental.models.results', 'version': '0.29.0'},
 'schema_name': 'qcschema_input',
 'schema_version': 1}
--------------------------------------------------------------------------

Scratch directory: /scratch/lukasz/psi4/
    SCF Algorithm Type (re)set to DF.
   => Libint2 <=

    Primary   basis highest AM E, G, H:  5, 4, 3
    Auxiliary basis highest AM E, G, H:  6, 5, 4
    Onebody   basis highest AM E, G, H:  6, 5, 4
    Solid Harmonics ordering:            Gaussian

*** tstart() called on kichot
*** at Mon Jun 15 06:35:41 2026

   => Loading Basis Set <=

    Name: AUG-CC-PVTZ
    Role: ORBITAL
    Keyword: BASIS
    atoms 1 entry HE         line    62 file /opt/psi4/share/psi4/basis/aug-cc-pvtz.gbs 
    atoms 2 entry NE         line   423 file /opt/psi4/share/psi4/basis/aug-cc-pvtz.gbs 


         ---------------------------------------------------------
                                   SCF
               by Justin Turney, Rob Parrish, Andy Simmonett
                          and Daniel G. A. Smith
                              RHF Reference
                        1 Threads,   1907 MiB Core
         ---------------------------------------------------------

  ==> Geometry <==

    Molecular point group: c2v
    Full point group: C_inf_v

    Geometry (in Bohr), charge = 0, multiplicity = 1:

       Center              X                  Y                   Z               Mass       
    ------------   -----------------  -----------------  -----------------  -----------------
         HE           0.000000000000     0.000000000000    -4.723505079995     4.002603254130
      Gh(NE)          0.000000000000     0.000000000000     0.945673296379    19.992440176200

  Running in c2v symmetry.

  Rotational constants: A = ************  B =      0.56165  C =      0.56165 [cm^-1]
  Rotational constants: A = ************  B =  16837.89826  C =  16837.89826 [MHz]
  Nuclear repulsion =    0.000000000000000

  Charge       = 0
  Multiplicity = 1
  Electrons    = 2
  Nalpha       = 1
  Nbeta        = 1

  ==> Algorithm <==

  SCF Algorithm Type is DF.
  DIIS enabled.
  MOM disabled.
  Fractional occupation disabled.
  Guess Type is SAD.
  Energy threshold   = 1.00e-08
  Density threshold  = 1.00e-08
  Integral threshold = 1.00e-12

  ==> Primary Basis <==

  Basis Set: AUG-CC-PVTZ
    Blend: AUG-CC-PVTZ
    Number of shells: 23
    Number of basis functions: 69
    Number of Cartesian functions: 80
    Spherical Harmonics?: true
    Max angular momentum: 3

   => Loading Basis Set <=

    Name: (AUG-CC-PVTZ AUX)
    Role: JKFIT
    Keyword: DF_BASIS_SCF
    atoms 1 entry HE         line    34 file /opt/psi4/share/psi4/basis/def2-universal-jkfit.gbs 
    atoms 2 entry NE         line   410 file /opt/psi4/share/psi4/basis/aug-cc-pvtz-jkfit.gbs 

  ==> Integral Setup <==

  DFHelper Memory: AOs need 0.005 GiB; user supplied 1.397 GiB. 
  SCF_SUBTYPE=INCORE selected. In-core MEM_DF algorithm will be used.
  Using in-core AOs.

  ==> MemDFJK: Density-Fitted J/K Matrices <==

    J tasked:                   Yes
    K tasked:                   Yes
    wK tasked:                   No
    OpenMP threads:               1
    Memory [MiB]:              1430
    Algorithm:                 Core
    Schwarz Cutoff:           1E-12
    Mask sparsity (%):       6.2592
    Fitting Condition:        1E-10

   => Auxiliary Basis Set <=

  Basis Set: (AUG-CC-PVTZ AUX)
    Blend: AUG-CC-PVTZ-JKFIT + DEF2-UNIVERSAL-JKFIT
    Number of shells: 39
    Number of basis functions: 127
    Number of Cartesian functions: 156
    Spherical Harmonics?: true
    Max angular momentum: 4

  Minimum eigenvalue in the overlap matrix is 2.6733112480E-02.
  Reciprocal condition number of the overlap matrix is 9.2445953788E-03.
    Using symmetric orthogonalization.

  ==> Pre-Iterations <==

  SCF Guess: Superposition of Atomic Densities via on-the-fly atomic UHF (no occupation information).

   -------------------------
    Irrep   Nso     Nmo    
   -------------------------
     A1        30      30 
     A2         7       7 
     B1        16      16 
     B2        16      16 
   -------------------------
    Total      69      69
   -------------------------

  ==> Iterations <==

                           Total Energy        Delta E     RMS |[F,P]|

   @DF-RHF iter SAD:    -2.86120522241954   -2.86121e+00   0.00000e+00 
   @DF-RHF iter   1:    -2.86120614115872   -9.18739e-07   3.26921e-06 DIIS
   @DF-RHF iter   2:    -2.86120615152754   -1.03688e-08   4.24174e-07 DIIS
   @DF-RHF iter   3:    -2.86120615174088   -2.13340e-10   2.70658e-08 DIIS
   @DF-RHF iter   4:    -2.86120615174177   -8.89955e-13   1.65120e-09 DIIS
  Energy and wave function converged.


  ==> Post-Iterations <==

    Orbital Energies [Eh]
    ---------------------

    Doubly Occupied:                                                      

       1A1    -0.917869  

    Virtual:                                                              

       2A1     0.102944     3A1     0.169775     1B1     0.212482  
       1B2     0.212482     4A1     0.239122     2B1     0.438067  
       2B2     0.438067     5A1     0.517227     6A1     0.838789  
       7A1     0.883441     3B2     0.996370     3B1     0.996370  
       8A1     1.016784     4B1     1.256036     4B2     1.256036  
       1A2     1.258911     9A1     1.258911    10A1     1.276570  
       2A2     1.520923    11A1     1.520923     5B1     1.533235  
       5B2     1.533235    12A1     1.606661     6B2     1.970965  
       6B1     1.970965    13A1     2.079424    14A1     3.756513  
       7B1     3.759186     7B2     3.759186    15A1     3.805498  
       3A2     4.529161    16A1     4.529161     8B1     4.529162  
       8B2     4.529162     9B2     4.529404     9B1     4.529404  
      17A1     4.530415     4A2     4.588902    18A1     4.588902  
      10B1     4.591800    10B2     4.591800    19A1     4.620526  
      20A1     4.863635    21A1     7.123624     5A2     7.123624  
      11B1     7.126821    11B2     7.126821    22A1     7.150109  
      12B2     8.227259    12B1     8.227259    23A1     8.291058  
      24A1    11.421354    13B2    13.973792    13B1    13.973792  
       6A2    13.973794    25A1    13.973794    14B1    13.973945  
      14B2    13.973945    26A1    13.976433     7A2    16.713274  
      27A1    16.713274    15B1    16.714707    15B2    16.714707  
      28A1    16.742457    16B1    17.859164    16B2    17.859164  
      29A1    17.879992    30A1    82.583881  

    Final Occupation by Irrep:
             A1    A2    B1    B2 
    DOCC [     1,    0,    0,    0 ]
    NA   [     1,    0,    0,    0 ]
    NB   [     1,    0,    0,    0 ]

  @DF-RHF Final Energy:    -2.86120615174177

   => Energetics <=

    Nuclear Repulsion Energy =              0.0000000000000000
    One-Electron Energy =                  -3.8866741466317039
    Two-Electron Energy =                   1.0254679948899366
    Total Energy =                         -2.8612061517417673

Computation Completed


Properties will be evaluated at   0.000000,   0.000000,   0.000000 [a0]

Properties computed using the SCF density matrix


 Multipole Moments:

 ------------------------------------------------------------------------------------
     Multipole            Electronic (a.u.)      Nuclear  (a.u.)        Total (a.u.)
 ------------------------------------------------------------------------------------

 L = 1.  Multiply by 2.5417464519 to convert [e a0] to [Debye]
 Dipole X            :          0.0000000            0.0000000            0.0000000
 Dipole Y            :          0.0000000            0.0000000            0.0000000
 Dipole Z            :          9.4470122           -9.4470102            0.0000021
 Magnitude           :                                                    0.0000021

 ------------------------------------------------------------------------------------

*** tstop() called on kichot at Mon Jun 15 06:35:41 2026
Module time:
	user time   =       0.19 seconds =       0.00 minutes
	system time =       0.01 seconds =       0.00 minutes
	total time  =          0 seconds =       0.00 minutes
Total time:
	user time   =       2.70 seconds =       0.05 minutes
	system time =       0.07 seconds =       0.00 minutes
	total time  =          3 seconds =       0.05 minutes

*** tstart() called on kichot
*** at Mon Jun 15 06:35:41 2026


  //>>>>>>>>>>>>>>>>>>>>>>>>>>>>>>>>>>>//
  //               DFMP2               //
  //<<<<<<<<<<<<<<<<<<<<<<<<<<<<<<<<<<<//

   => Loading Basis Set <=

    Name: (AUG-CC-PVTZ AUX)
    Role: RIFIT
    Keyword: DF_BASIS_MP2
    atoms 1 entry HE         line    60 file /opt/psi4/share/psi4/basis/aug-cc-pvtz-ri.gbs 
    atoms 2 entry NE         line   380 file /opt/psi4/share/psi4/basis/aug-cc-pvtz-ri.gbs 

	 --------------------------------------------------------
	                          DF-MP2                         
	      2nd-Order Density-Fitted Moller-Plesset Theory     
	              RMP2 Wavefunction,   1 Threads             
	                                                         
	        Rob Parrish, Justin Turney, Andy Simmonett,      
	           Ed Hohenstein, and C. David Sherrill          
	 --------------------------------------------------------

   => Auxiliary Basis Set <=

  Basis Set: (AUG-CC-PVTZ AUX)
    Blend: AUG-CC-PVTZ-RI
    Number of shells: 42
    Number of basis functions: 142
    Number of Cartesian functions: 175
    Spherical Harmonics?: true
    Max angular momentum: 4

	 --------------------------------------------------------
	                 NBF =    69, NAUX =   142
	 --------------------------------------------------------
	   CLASS    FOCC     OCC    AOCC    AVIR     VIR    FVIR
	   PAIRS       0       1       1      68      68       0
	 --------------------------------------------------------

	-----------------------------------------------------------
	 ==================> DF-MP2 Energies <==================== 
	-----------------------------------------------------------
	 Reference Energy          =      -2.8612061517417673 [Eh]
	 Singles Energy            =      -0.0000000000000000 [Eh]
	 Same-Spin Energy          =       0.0000000000000000 [Eh]
	 Opposite-Spin Energy      =      -0.0336116543128143 [Eh]
	 Correlation Energy        =      -0.0336116543128143 [Eh]
	 Total Energy              =      -2.8948178060545815 [Eh]
	-----------------------------------------------------------
	 ================> DF-SCS-MP2 Energies <================== 
	-----------------------------------------------------------
	 SCS Same-Spin Scale       =       0.3333333333333333 [-]
	 SCS Opposite-Spin Scale   =       1.2000000000000000 [-]
	 SCS Same-Spin Energy      =       0.0000000000000000 [Eh]
	 SCS Opposite-Spin Energy  =      -0.0403339851753771 [Eh]
	 SCS Correlation Energy    =      -0.0403339851753771 [Eh]
	 SCS Total Energy          =      -2.9015401369171445 [Eh]
	-----------------------------------------------------------


*** tstop() called on kichot at Mon Jun 15 06:35:41 2026
Module time:
	user time   =       0.03 seconds =       0.00 minutes
	system time =       0.00 seconds =       0.00 minutes
	total time  =          0 seconds =       0.00 minutes
Total time:
	user time   =       2.73 seconds =       0.05 minutes
	system time =       0.07 seconds =       0.00 minutes
	total time  =          3 seconds =       0.05 minutes

    Psi4 stopped on: Monday, 15 June 2026 06:35AM
    Psi4 wall time for execution: 0:00:00.25


    -----------------------------------------------------------------------
          Psi4: An Open-Source Ab Initio Electronic Structure Package
                               Psi4 1.11a1.dev42 

                         Git: Rev {master} 144882d 


    D. G. A. Smith, L. A. Burns, A. C. Simmonett, R. M. Parrish,
    M. C. Schieber, R. Galvelis, P. Kraus, H. Kruse, R. Di Remigio,
    A. Alenaizan, A. M. James, S. Lehtola, J. P. Misiewicz, M. Scheurer,
    R. A. Shaw, J. B. Schriber, Y. Xie, Z. L. Glick, D. A. Sirianni,
    J. S. O'Brien, J. M. Waldrop, A. Kumar, E. G. Hohenstein,
    B. P. Pritchard, B. R. Brooks, H. F. Schaefer III, A. Yu. Sokolov,
    K. Patkowski, A. E. DePrince III, U. Bozkaya, R. A. King,
    F. A. Evangelista, J. M. Turney, T. D. Crawford, C. D. Sherrill,
    J. Chem. Phys. 152(18) 184108 (2020). https://doi.org/10.1063/5.0006002

                            Additional Code Authors
    E. T. Seidl, C. L. Janssen, E. F. Valeev, M. L. Leininger,
    J. F. Gonthier, R. M. Richard, H. R. McAlexander, M. Saitow, X. Wang,
    P. Verma, M. H. Lechner, A. Jiang, S. Behnle, A. G. Heide,
    M. F. Herbst, D. L. Poole, T. Győri, E. C. Mitchell, J. P. Pederson,
    and A. M. Wallace

             Previous Authors, Complete List of Code Contributors,
                       and Citations for Specific Modules
    https://github.com/psi4/psi4/blob/master/codemeta.json
    https://github.com/psi4/psi4/graphs/contributors
    https://psicode.org/psi4manual/master/introduction.html#citing-psifour

    -----------------------------------------------------------------------


    Psi4 started on: Monday, 15 June 2026 06:35AM

    Process ID: 215698
    Host:       kichot
    PSIDATADIR: /opt/psi4/share/psi4
    Memory:     1.9 GiB
    Threads:    1
    Addons:     a̶d̶c̶c̶, a̶m̶b̶i̶t̶, b̶s̶e̶, c̶c̶t̶3̶, c̶f̶o̶u̶r̶, c̶h̶e̶m̶p̶s̶2̶, c̶p̶p̶e̶, d̶d̶x̶,
                d̶f̶t̶d̶3̶, d̶f̶t̶d̶4̶, d̶k̶h̶, e̶c̶p̶i̶n̶t̶, e̶i̶n̶s̶u̶m̶s̶, f̶o̶r̶t̶e̶,
                g̶a̶u̶x̶c̶, g̶c̶p̶, g̶d̶m̶a̶, g̶e̶o̶m̶e̶t̶r̶i̶c̶, g̶p̶u̶_̶d̶f̶c̶c̶,
                i̶n̶t̶e̶g̶r̶a̶t̶o̶r̶x̶x̶, i̶p̶i̶, l̶i̶b̶e̶f̶p̶, m̶d̶i̶, m̶p̶2̶d̶, m̶r̶c̶c̶,
                o̶o̶o̶, o̶p̶e̶n̶f̶e̶r̶m̶i̶o̶n̶p̶s̶i̶4̶, p̶c̶m̶s̶o̶l̶v̶e̶r̶,
                p̶s̶i̶4̶f̶o̶c̶k̶c̶i̶, p̶s̶i̶x̶a̶s̶, p̶y̶e̶i̶n̶s̶u̶m̶s̶, r̶e̶s̶p̶, s̶i̶m̶i̶n̶t̶,
                s̶n̶s̶m̶p̶2̶, v̶2̶r̶d̶m̶_̶c̶a̶s̶s̶c̶f̶

  ==> Input QCSchema <==

--------------------------------------------------------------------------
{'driver': 'energy',
 'extras': {'psiapi': True, 'wfn_qcvars_only': True},
 'id': None,
 'keywords': {'function_kwargs': {}},
 'model': {'basis': 'aug-cc-pvtz', 'method': 'mp2'},
 'molecule': {'atom_labels': ['', ''],
              'atomic_numbers': [2, 10],
              'extras': {},
              'fix_com': True,
              'fix_orientation': True,
              'fragment_charges': [0.0, 0.0],
              'fragment_multiplicities': [1, 1],
              'fragments': [[0], [1]],
              'geometry': [0.0, 0.0, -4.7235050799945, 0.0, 0.0, 0.9456732963789],
              'mass_numbers': [4, 20],
              'masses': [4.00260325413, 19.9924401762],
              'molecular_charge': 0.0,
              'molecular_multiplicity': 1,
              'name': 'He-Ne ([0, 1],[])',
              'provenance': {'creator': 'QCElemental',
                             'routine': 'qcelemental.molparse.from_schema',
                             'version': '0.29.0'},
              'real': [True, True],
              'schema_name': 'qcschema_molecule',
              'schema_version': 2,
              'symbols': ['He', 'Ne'],
              'validated': True},
 'protocols': {'stdout': True},
 'provenance': {'creator': 'QCElemental', 'routine': 'qcelemental.models.results', 'version': '0.29.0'},
 'schema_name': 'qcschema_input',
 'schema_version': 1}
--------------------------------------------------------------------------

Scratch directory: /scratch/lukasz/psi4/
    SCF Algorithm Type (re)set to DF.
   => Libint2 <=

    Primary   basis highest AM E, G, H:  5, 4, 3
    Auxiliary basis highest AM E, G, H:  6, 5, 4
    Onebody   basis highest AM E, G, H:  6, 5, 4
    Solid Harmonics ordering:            Gaussian

*** tstart() called on kichot
*** at Mon Jun 15 06:35:41 2026

   => Loading Basis Set <=

    Name: AUG-CC-PVTZ
    Role: ORBITAL
    Keyword: BASIS
    atoms 1 entry HE         line    62 file /opt/psi4/share/psi4/basis/aug-cc-pvtz.gbs 
    atoms 2 entry NE         line   423 file /opt/psi4/share/psi4/basis/aug-cc-pvtz.gbs 


         ---------------------------------------------------------
                                   SCF
               by Justin Turney, Rob Parrish, Andy Simmonett
                          and Daniel G. A. Smith
                              RHF Reference
                        1 Threads,   1907 MiB Core
         ---------------------------------------------------------

  ==> Geometry <==

    Molecular point group: c2v
    Full point group: C_inf_v

    Geometry (in Bohr), charge = 0, multiplicity = 1:

       Center              X                  Y                   Z               Mass       
    ------------   -----------------  -----------------  -----------------  -----------------
         HE           0.000000000000     0.000000000000    -4.723505079995     4.002603254130
         NE           0.000000000000     0.000000000000     0.945673296379    19.992440176200

  Running in c2v symmetry.

  Rotational constants: A = ************  B =      0.56165  C =      0.56165 [cm^-1]
  Rotational constants: A = ************  B =  16837.89826  C =  16837.89826 [MHz]
  Nuclear repulsion =    3.527848071133385

  Charge       = 0
  Multiplicity = 1
  Electrons    = 12
  Nalpha       = 6
  Nbeta        = 6

  ==> Algorithm <==

  SCF Algorithm Type is DF.
  DIIS enabled.
  MOM disabled.
  Fractional occupation disabled.
  Guess Type is SAD.
  Energy threshold   = 1.00e-08
  Density threshold  = 1.00e-08
  Integral threshold = 1.00e-12

  ==> Primary Basis <==

  Basis Set: AUG-CC-PVTZ
    Blend: AUG-CC-PVTZ
    Number of shells: 23
    Number of basis functions: 69
    Number of Cartesian functions: 80
    Spherical Harmonics?: true
    Max angular momentum: 3

   => Loading Basis Set <=

    Name: (AUG-CC-PVTZ AUX)
    Role: JKFIT
    Keyword: DF_BASIS_SCF
    atoms 1 entry HE         line    34 file /opt/psi4/share/psi4/basis/def2-universal-jkfit.gbs 
    atoms 2 entry NE         line   410 file /opt/psi4/share/psi4/basis/aug-cc-pvtz-jkfit.gbs 

  ==> Integral Setup <==

  DFHelper Memory: AOs need 0.005 GiB; user supplied 1.397 GiB. 
  SCF_SUBTYPE=INCORE selected. In-core MEM_DF algorithm will be used.
  Using in-core AOs.

  ==> MemDFJK: Density-Fitted J/K Matrices <==

    J tasked:                   Yes
    K tasked:                   Yes
    wK tasked:                   No
    OpenMP threads:               1
    Memory [MiB]:              1430
    Algorithm:                 Core
    Schwarz Cutoff:           1E-12
    Mask sparsity (%):       6.2592
    Fitting Condition:        1E-10

   => Auxiliary Basis Set <=

  Basis Set: (AUG-CC-PVTZ AUX)
    Blend: AUG-CC-PVTZ-JKFIT + DEF2-UNIVERSAL-JKFIT
    Number of shells: 39
    Number of basis functions: 127
    Number of Cartesian functions: 156
    Spherical Harmonics?: true
    Max angular momentum: 4

  Minimum eigenvalue in the overlap matrix is 2.6733112480E-02.
  Reciprocal condition number of the overlap matrix is 9.2445953788E-03.
    Using symmetric orthogonalization.

  ==> Pre-Iterations <==

  SCF Guess: Superposition of Atomic Densities via on-the-fly atomic UHF (no occupation information).

   -------------------------
    Irrep   Nso     Nmo    
   -------------------------
     A1        30      30 
     A2         7       7 
     B1        16      16 
     B2        16      16 
   -------------------------
    Total      69      69
   -------------------------

  ==> Iterations <==

                           Total Energy        Delta E     RMS |[F,P]|

   @DF-RHF iter SAD:  -131.39455938404586   -1.31395e+02   0.00000e+00 
   @DF-RHF iter   1:  -131.39443287309527    1.26511e-04   4.71482e-05 DIIS
   @DF-RHF iter   2:  -131.39443347726248   -6.04167e-07   2.20051e-05 DIIS
   @DF-RHF iter   3:  -131.39443360694389   -1.29681e-07   1.63265e-06 DIIS
   @DF-RHF iter   4:  -131.39443360877576   -1.83186e-09   1.75564e-07 DIIS
   @DF-RHF iter   5:  -131.39443360881279   -3.70335e-11   2.87531e-08 DIIS
   @DF-RHF iter   6:  -131.39443360881370   -9.09495e-13   2.98252e-09 DIIS
  Energy and wave function converged.


  ==> Post-Iterations <==

    Orbital Energies [Eh]
    ---------------------

    Doubly Occupied:                                                      

       1A1   -32.778909     2A1    -1.933351     3A1    -0.917931  
       1B2    -0.851134     1B1    -0.851134     4A1    -0.851043  

    Virtual:                                                              

       5A1     0.113581     2B1     0.238207     2B2     0.238207  
       6A1     0.241143     7A1     0.277021     3B1     0.439446  
       3B2     0.439446     8A1     0.541911     9A1     0.836723  
       4B1     1.131479     4B2     1.131479    10A1     1.131983  
       1A2     1.131983    11A1     1.157616     5B1     1.355469  
       5B2     1.355469    12A1     1.380571    13A1     1.520963  
       2A2     1.520963     6B1     1.532715     6B2     1.532715  
      14A1     1.582297     7B1     1.970656     7B2     1.970656  
      15A1     1.994345    16A1     2.134432    17A1     3.610400  
       3A2     3.610400     8B1     3.613724     8B2     3.613724  
      18A1     3.665636     9B2     4.198600     9B1     4.198600  
       4A2     4.198605    19A1     4.198605    10B1     4.198865  
      10B2     4.198865    20A1     4.202131    21A1     4.841152  
      11B1     6.346566    11B2     6.346566    22A1     6.365960  
      23A1     7.123729     5A2     7.123729    12B1     7.126979  
      12B2     7.126979    24A1     7.149040    13B2     8.227340  
      13B1     8.227340    25A1     8.289505     6A2    11.831490  
      26A1    11.831490    14B1    11.833183    14B2    11.833183  
      27A1    11.861666    15B2    12.000343    15B1    12.000343  
       7A2    12.000355    28A1    12.000355    16B1    12.000520  
      16B2    12.000520    29A1    12.003431    30A1    13.041519  

    Final Occupation by Irrep:
             A1    A2    B1    B2 
    DOCC [     4,    0,    1,    1 ]
    NA   [     4,    0,    1,    1 ]
    NB   [     4,    0,    1,    1 ]

  @DF-RHF Final Energy:  -131.39443360881370

   => Energetics <=

    Nuclear Repulsion Energy =              3.5278480711333855
    One-Electron Energy =                -193.4775591274697035
    Two-Electron Energy =                  58.5552774475226272
    Total Energy =                       -131.3944336088136993

Computation Completed


Properties will be evaluated at   0.000000,   0.000000,   0.000000 [a0]

Properties computed using the SCF density matrix


 Multipole Moments:

 ------------------------------------------------------------------------------------
     Multipole            Electronic (a.u.)      Nuclear  (a.u.)        Total (a.u.)
 ------------------------------------------------------------------------------------

 L = 1.  Multiply by 2.5417464519 to convert [e a0] to [Debye]
 Dipole X            :          0.0000000            0.0000000            0.0000000
 Dipole Y            :          0.0000000            0.0000000            0.0000000
 Dipole Z            :         -0.0089993            0.0097228            0.0007235
 Magnitude           :                                                    0.0007235

 ------------------------------------------------------------------------------------

*** tstop() called on kichot at Mon Jun 15 06:35:41 2026
Module time:
	user time   =       0.26 seconds =       0.00 minutes
	system time =       0.00 seconds =       0.00 minutes
	total time  =          0 seconds =       0.00 minutes
Total time:
	user time   =       3.03 seconds =       0.05 minutes
	system time =       0.07 seconds =       0.00 minutes
	total time  =          3 seconds =       0.05 minutes

*** tstart() called on kichot
*** at Mon Jun 15 06:35:41 2026


  //>>>>>>>>>>>>>>>>>>>>>>>>>>>>>>>>>>>//
  //               DFMP2               //
  //<<<<<<<<<<<<<<<<<<<<<<<<<<<<<<<<<<<//

   => Loading Basis Set <=

    Name: (AUG-CC-PVTZ AUX)
    Role: RIFIT
    Keyword: DF_BASIS_MP2
    atoms 1 entry HE         line    60 file /opt/psi4/share/psi4/basis/aug-cc-pvtz-ri.gbs 
    atoms 2 entry NE         line   380 file /opt/psi4/share/psi4/basis/aug-cc-pvtz-ri.gbs 

	 --------------------------------------------------------
	                          DF-MP2                         
	      2nd-Order Density-Fitted Moller-Plesset Theory     
	              RMP2 Wavefunction,   1 Threads             
	                                                         
	        Rob Parrish, Justin Turney, Andy Simmonett,      
	           Ed Hohenstein, and C. David Sherrill          
	 --------------------------------------------------------

   => Auxiliary Basis Set <=

  Basis Set: (AUG-CC-PVTZ AUX)
    Blend: AUG-CC-PVTZ-RI
    Number of shells: 42
    Number of basis functions: 142
    Number of Cartesian functions: 175
    Spherical Harmonics?: true
    Max angular momentum: 4

	 --------------------------------------------------------
	                 NBF =    69, NAUX =   142
	 --------------------------------------------------------
	   CLASS    FOCC     OCC    AOCC    AVIR     VIR    FVIR
	   PAIRS       0       6       6      63      63       0
	 --------------------------------------------------------

	-----------------------------------------------------------
	 ==================> DF-MP2 Energies <==================== 
	-----------------------------------------------------------
	 Reference Energy          =    -131.3944336088136993 [Eh]
	 Singles Energy            =      -0.0000000000000000 [Eh]
	 Same-Spin Energy          =      -0.0747139647985141 [Eh]
	 Opposite-Spin Energy      =      -0.2448570413429401 [Eh]
	 Correlation Energy        =      -0.3195710061414542 [Eh]
	 Total Energy              =    -131.7140046149551438 [Eh]
	-----------------------------------------------------------
	 ================> DF-SCS-MP2 Energies <================== 
	-----------------------------------------------------------
	 SCS Same-Spin Scale       =       0.3333333333333333 [-]
	 SCS Opposite-Spin Scale   =       1.2000000000000000 [-]
	 SCS Same-Spin Energy      =      -0.0249046549328380 [Eh]
	 SCS Opposite-Spin Energy  =      -0.2938284496115280 [Eh]
	 SCS Correlation Energy    =      -0.3187331045443661 [Eh]
	 SCS Total Energy          =    -131.7131667133580777 [Eh]
	-----------------------------------------------------------


*** tstop() called on kichot at Mon Jun 15 06:35:41 2026
Module time:
	user time   =       0.04 seconds =       0.00 minutes
	system time =       0.00 seconds =       0.00 minutes
	total time  =          0 seconds =       0.00 minutes
Total time:
	user time   =       3.08 seconds =       0.05 minutes
	system time =       0.07 seconds =       0.00 minutes
	total time  =          3 seconds =       0.05 minutes

    Psi4 stopped on: Monday, 15 June 2026 06:35AM
    Psi4 wall time for execution: 0:00:00.35


  //>>>>>>>>>>>>>>>>>>>>>>>>>>>>>>>>>>>//
  //          ManyBody Results         //
  //<<<<<<<<<<<<<<<<<<<<<<<<<<<<<<<<<<<//


   ==> N-Body: Counterpoise Corrected (CP) energies <==

              MC n-Body  Total Energy            Interaction Energy                          N-body Contribution to Interaction Energy
                         [Eh]                    [Eh]                  [kcal/mol]            [Eh]                  [kcal/mol]
              §A  1        N/A                   0.000000000000        0.000000000000        0.000000000000        0.000000000000
     FULL/RTN §A  2        N/A                  -0.000020247481       -0.012705486230       -0.000020247481       -0.012705486230

   MC Legend: §A: "(auto)"


Scratch directory: /scratch/lukasz/psi4/

  //>>>>>>>>>>>>>>>>>>>>>>>>>>>>>>>>>>>//
  //   ManyBody Setup: N-Body Levels 2 //
  //<<<<<<<<<<<<<<<<<<<<<<<<<<<<<<<<<<<//

    Model chemistry "(auto)" (§A):          3
        Number of 1-body computations:      2 (nocp: 0, cp: 2, vmfc_compute: 0)
        Number of 2-body computations:      1 (nocp: 0, cp: 1, vmfc_compute: 0)

    -----------------------------------------------------------------------
          Psi4: An Open-Source Ab Initio Electronic Structure Package
                               Psi4 1.11a1.dev42 

                         Git: Rev {master} 144882d 


    D. G. A. Smith, L. A. Burns, A. C. Simmonett, R. M. Parrish,
    M. C. Schieber, R. Galvelis, P. Kraus, H. Kruse, R. Di Remigio,
    A. Alenaizan, A. M. James, S. Lehtola, J. P. Misiewicz, M. Scheurer,
    R. A. Shaw, J. B. Schriber, Y. Xie, Z. L. Glick, D. A. Sirianni,
    J. S. O'Brien, J. M. Waldrop, A. Kumar, E. G. Hohenstein,
    B. P. Pritchard, B. R. Brooks, H. F. Schaefer III, A. Yu. Sokolov,
    K. Patkowski, A. E. DePrince III, U. Bozkaya, R. A. King,
    F. A. Evangelista, J. M. Turney, T. D. Crawford, C. D. Sherrill,
    J. Chem. Phys. 152(18) 184108 (2020). https://doi.org/10.1063/5.0006002

                            Additional Code Authors
    E. T. Seidl, C. L. Janssen, E. F. Valeev, M. L. Leininger,
    J. F. Gonthier, R. M. Richard, H. R. McAlexander, M. Saitow, X. Wang,
    P. Verma, M. H. Lechner, A. Jiang, S. Behnle, A. G. Heide,
    M. F. Herbst, D. L. Poole, T. Győri, E. C. Mitchell, J. P. Pederson,
    and A. M. Wallace

             Previous Authors, Complete List of Code Contributors,
                       and Citations for Specific Modules
    https://github.com/psi4/psi4/blob/master/codemeta.json
    https://github.com/psi4/psi4/graphs/contributors
    https://psicode.org/psi4manual/master/introduction.html#citing-psifour

    -----------------------------------------------------------------------


    Psi4 started on: Monday, 15 June 2026 06:35AM

    Process ID: 215698
    Host:       kichot
    PSIDATADIR: /opt/psi4/share/psi4
    Memory:     1.9 GiB
    Threads:    1
    Addons:     a̶d̶c̶c̶, a̶m̶b̶i̶t̶, b̶s̶e̶, c̶c̶t̶3̶, c̶f̶o̶u̶r̶, c̶h̶e̶m̶p̶s̶2̶, c̶p̶p̶e̶, d̶d̶x̶,
                d̶f̶t̶d̶3̶, d̶f̶t̶d̶4̶, d̶k̶h̶, e̶c̶p̶i̶n̶t̶, e̶i̶n̶s̶u̶m̶s̶, f̶o̶r̶t̶e̶,
                g̶a̶u̶x̶c̶, g̶c̶p̶, g̶d̶m̶a̶, g̶e̶o̶m̶e̶t̶r̶i̶c̶, g̶p̶u̶_̶d̶f̶c̶c̶,
                i̶n̶t̶e̶g̶r̶a̶t̶o̶r̶x̶x̶, i̶p̶i̶, l̶i̶b̶e̶f̶p̶, m̶d̶i̶, m̶p̶2̶d̶, m̶r̶c̶c̶,
                o̶o̶o̶, o̶p̶e̶n̶f̶e̶r̶m̶i̶o̶n̶p̶s̶i̶4̶, p̶c̶m̶s̶o̶l̶v̶e̶r̶,
                p̶s̶i̶4̶f̶o̶c̶k̶c̶i̶, p̶s̶i̶x̶a̶s̶, p̶y̶e̶i̶n̶s̶u̶m̶s̶, r̶e̶s̶p̶, s̶i̶m̶i̶n̶t̶,
                s̶n̶s̶m̶p̶2̶, v̶2̶r̶d̶m̶_̶c̶a̶s̶s̶c̶f̶

  ==> Input QCSchema <==

--------------------------------------------------------------------------
{'driver': 'energy',
 'extras': {'psiapi': True, 'wfn_qcvars_only': True},
 'id': None,
 'keywords': {'function_kwargs': {}},
 'model': {'basis': 'aug-cc-pvqz', 'method': 'scf'},
 'molecule': {'atom_labels': ['', ''],
              'atomic_numbers': [2, 10],
              'extras': {},
              'fix_com': True,
              'fix_orientation': True,
              'fragment_charges': [0.0, 0.0],
              'fragment_multiplicities': [1, 1],
              'fragments': [[0], [1]],
              'geometry': [0.0, 0.0, -4.7235050799945, 0.0, 0.0, 0.9456732963789],
              'mass_numbers': [4, 20],
              'masses': [4.00260325413, 19.9924401762],
              'molecular_charge': 0.0,
              'molecular_multiplicity': 1,
              'name': 'He-Ne ([1],[0])',
              'provenance': {'creator': 'QCElemental',
                             'routine': 'qcelemental.molparse.from_schema',
                             'version': '0.29.0'},
              'real': [False, True],
              'schema_name': 'qcschema_molecule',
              'schema_version': 2,
              'symbols': ['He', 'Ne'],
              'validated': True},
 'protocols': {'stdout': True},
 'provenance': {'creator': 'QCElemental', 'routine': 'qcelemental.models.results', 'version': '0.29.0'},
 'schema_name': 'qcschema_input',
 'schema_version': 1}
--------------------------------------------------------------------------

Scratch directory: /scratch/lukasz/psi4/
   => Libint2 <=

    Primary   basis highest AM E, G, H:  5, 4, 3
    Auxiliary basis highest AM E, G, H:  6, 5, 4
    Onebody   basis highest AM E, G, H:  6, 5, 4
    Solid Harmonics ordering:            Gaussian

*** tstart() called on kichot
*** at Mon Jun 15 06:35:42 2026

   => Loading Basis Set <=

    Name: AUG-CC-PVQZ
    Role: ORBITAL
    Keyword: BASIS
    atoms 1 entry HE         line    72 file /opt/psi4/share/psi4/basis/aug-cc-pvqz.gbs 
    atoms 2 entry NE         line   543 file /opt/psi4/share/psi4/basis/aug-cc-pvqz.gbs 


         ---------------------------------------------------------
                                   SCF
               by Justin Turney, Rob Parrish, Andy Simmonett
                          and Daniel G. A. Smith
                              RHF Reference
                        1 Threads,   1907 MiB Core
         ---------------------------------------------------------

  ==> Geometry <==

    Molecular point group: c2v
    Full point group: C_inf_v

    Geometry (in Bohr), charge = 0, multiplicity = 1:

       Center              X                  Y                   Z               Mass       
    ------------   -----------------  -----------------  -----------------  -----------------
      Gh(HE)          0.000000000000     0.000000000000    -4.723505079995     4.002603254130
         NE           0.000000000000     0.000000000000     0.945673296379    19.992440176200

  Running in c2v symmetry.

  Rotational constants: A = ************  B =      0.56165  C =      0.56165 [cm^-1]
  Rotational constants: A = ************  B =  16837.89826  C =  16837.89826 [MHz]
  Nuclear repulsion =    0.000000000000000

  Charge       = 0
  Multiplicity = 1
  Electrons    = 10
  Nalpha       = 5
  Nbeta        = 5

  ==> Algorithm <==

  SCF Algorithm Type is DF.
  DIIS enabled.
  MOM disabled.
  Fractional occupation disabled.
  Guess Type is SAD.
  Energy threshold   = 1.00e-06
  Density threshold  = 1.00e-06
  Integral threshold = 1.00e-12

  ==> Primary Basis <==

  Basis Set: AUG-CC-PVQZ
    Blend: AUG-CC-PVQZ
    Number of shells: 34
    Number of basis functions: 126
    Number of Cartesian functions: 160
    Spherical Harmonics?: true
    Max angular momentum: 4

   => Loading Basis Set <=

    Name: (AUG-CC-PVQZ AUX)
    Role: JKFIT
    Keyword: DF_BASIS_SCF
    atoms 1 entry HE         line    34 file /opt/psi4/share/psi4/basis/def2-universal-jkfit.gbs 
    atoms 2 entry NE         line   458 file /opt/psi4/share/psi4/basis/aug-cc-pvqz-jkfit.gbs 

  ==> Integral Setup <==

  DFHelper Memory: AOs need 0.022 GiB; user supplied 1.397 GiB. 
  SCF_SUBTYPE=INCORE selected. In-core MEM_DF algorithm will be used.
  Using in-core AOs.

  ==> MemDFJK: Density-Fitted J/K Matrices <==

    J tasked:                   Yes
    K tasked:                   Yes
    wK tasked:                   No
    OpenMP threads:               1
    Memory [MiB]:              1430
    Algorithm:                 Core
    Schwarz Cutoff:           1E-12
    Mask sparsity (%):      11.2245
    Fitting Condition:        1E-10

   => Auxiliary Basis Set <=

  Basis Set: (AUG-CC-PVQZ AUX)
    Blend: AUG-CC-PVQZ-JKFIT + DEF2-UNIVERSAL-JKFIT
    Number of shells: 43
    Number of basis functions: 165
    Number of Cartesian functions: 223
    Spherical Harmonics?: true
    Max angular momentum: 5

  Minimum eigenvalue in the overlap matrix is 3.2366262602E-03.
  Reciprocal condition number of the overlap matrix is 9.4365410713E-04.
    Using symmetric orthogonalization.

  ==> Pre-Iterations <==

  SCF Guess: Superposition of Atomic Densities via on-the-fly atomic UHF (no occupation information).

   -------------------------
    Irrep   Nso     Nmo    
   -------------------------
     A1        50      50 
     A2        16      16 
     B1        30      30 
     B2        30      30 
   -------------------------
    Total     126     126
   -------------------------

  ==> Iterations <==

                           Total Energy        Delta E     RMS |[F,P]|

   @DF-RHF iter SAD:  -128.54374146649201   -1.28544e+02   0.00000e+00 
   @DF-RHF iter   1:  -128.54375897948765   -1.75130e-05   2.40166e-05 DIIS
   @DF-RHF iter   2:  -128.54375939731599   -4.17828e-07   1.21293e-05 DIIS
   @DF-RHF iter   3:  -128.54375951323794   -1.15922e-07   4.07464e-07 DIIS
  Energy and wave function converged.


  ==> Post-Iterations <==

    Orbital Energies [Eh]
    ---------------------

    Doubly Occupied:                                                      

       1A1   -32.774194     2A1    -1.931195     3A1    -0.850646  
       1B2    -0.850640     1B1    -0.850640  

    Virtual:                                                              

       4A1     0.067211     5A1     0.202618     2B2     0.204666  
       2B1     0.204666     6A1     0.252774     7A1     0.377117  
       3B1     0.388015     3B2     0.388015     8A1     0.488910  
       4B2     0.819797     4B1     0.819797     1A2     0.821452  
       9A1     0.821452    10A1     0.864937    11A1     1.048509  
       5B1     1.051991     5B2     1.051991     2A2     1.175778  
      12A1     1.175778     6B2     1.205993     6B1     1.205993  
      13A1     1.308873    14A1     1.427035    15A1     1.465131  
       7B2     1.694613     7B1     1.694613    16A1     1.814207  
       3A2     2.568645    17A1     2.568645     8B2     2.579131  
       8B1     2.579131    18A1     2.638547     9B2     2.696287  
       9B1     2.696287     4A2     2.696301    19A1     2.696301  
      10B2     2.699722    10B1     2.699722    20A1     2.755349  
      11B1     3.049871    11B2     3.049871    21A1     3.050169  
       5A2     3.050169    12B2     3.061571    12B1     3.061571  
      22A1     3.116309    13B1     4.126296    13B2     4.126296  
      23A1     4.152830    24A1     4.615673    25A1     4.821203  
       6A2     4.821203    14B1     4.833988    14B2     4.833988  
      26A1     4.930714    15B2     5.879308    15B1     5.879308  
      27A1     5.958000    28A1     6.141443     7A2     6.141443  
      16B2     6.141445    16B1     6.141445     8A2     6.141452  
      29A1     6.141452    17B2     6.142052    17B1     6.142052  
      30A1     6.145851    31A1     6.312001     9A2     7.245273  
      32A1     7.245273    18B2     7.256599    18B1     7.256599  
      33A1     7.328418    19B1     7.470890    19B2     7.470890  
      10A2     7.470915    34A1     7.470915    20B2     7.474056  
      20B1     7.474056    35A1     7.520466    21B1    13.017961  
      21B2    13.017961    36A1    13.018000    11A2    13.018000  
      22B1    13.019832    22B2    13.019832    37A1    13.029472  
      23B1    15.958003    23B2    15.958003    38A1    15.982405  
      39A1    17.283678    12A2    17.283678    24B2    17.283679  
      24B1    17.283679    13A2    17.283680    40A1    17.283680  
      25B2    17.283774    25B1    17.283774    41A1    17.284394  
      14A2    17.904699    42A1    17.904699    26B2    17.911273  
      26B1    17.911273    43A1    17.956515    44A1    20.693988  
      27B2    20.756652    27B1    20.756652    45A1    20.799667  
      28B2    20.843197    28B1    20.843197    15A2    20.843206  
      46A1    20.843206    29B2    20.846246    29B1    20.846246  
      47A1    20.885878    48A1    21.324636    16A2    21.324636  
      30B2    21.332097    30B1    21.332097    49A1    21.397968  
      50A1    67.331743  

    Final Occupation by Irrep:
             A1    A2    B1    B2 
    DOCC [     3,    0,    1,    1 ]
    NA   [     3,    0,    1,    1 ]
    NB   [     3,    0,    1,    1 ]

  @DF-RHF Final Energy:  -128.54375951323794

   => Energetics <=

    Nuclear Repulsion Energy =              0.0000000000000000
    One-Electron Energy =                -182.5729404144450143
    Two-Electron Energy =                  54.0291809012070559
    Total Energy =                       -128.5437595132379442

Computation Completed


Properties will be evaluated at   0.000000,   0.000000,   0.000000 [a0]

Properties computed using the SCF density matrix


 Multipole Moments:

 ------------------------------------------------------------------------------------
     Multipole            Electronic (a.u.)      Nuclear  (a.u.)        Total (a.u.)
 ------------------------------------------------------------------------------------

 L = 1.  Multiply by 2.5417464519 to convert [e a0] to [Debye]
 Dipole X            :          0.0000000            0.0000000            0.0000000
 Dipole Y            :          0.0000000            0.0000000            0.0000000
 Dipole Z            :         -9.4565177            9.4567330            0.0002153
 Magnitude           :                                                    0.0002153

 ------------------------------------------------------------------------------------

*** tstop() called on kichot at Mon Jun 15 06:35:42 2026
Module time:
	user time   =       0.55 seconds =       0.01 minutes
	system time =       0.01 seconds =       0.00 minutes
	total time  =          0 seconds =       0.00 minutes
Total time:
	user time   =       3.74 seconds =       0.06 minutes
	system time =       0.08 seconds =       0.00 minutes
	total time  =          4 seconds =       0.07 minutes

    Psi4 stopped on: Monday, 15 June 2026 06:35AM
    Psi4 wall time for execution: 0:00:00.59


    -----------------------------------------------------------------------
          Psi4: An Open-Source Ab Initio Electronic Structure Package
                               Psi4 1.11a1.dev42 

                         Git: Rev {master} 144882d 


    D. G. A. Smith, L. A. Burns, A. C. Simmonett, R. M. Parrish,
    M. C. Schieber, R. Galvelis, P. Kraus, H. Kruse, R. Di Remigio,
    A. Alenaizan, A. M. James, S. Lehtola, J. P. Misiewicz, M. Scheurer,
    R. A. Shaw, J. B. Schriber, Y. Xie, Z. L. Glick, D. A. Sirianni,
    J. S. O'Brien, J. M. Waldrop, A. Kumar, E. G. Hohenstein,
    B. P. Pritchard, B. R. Brooks, H. F. Schaefer III, A. Yu. Sokolov,
    K. Patkowski, A. E. DePrince III, U. Bozkaya, R. A. King,
    F. A. Evangelista, J. M. Turney, T. D. Crawford, C. D. Sherrill,
    J. Chem. Phys. 152(18) 184108 (2020). https://doi.org/10.1063/5.0006002

                            Additional Code Authors
    E. T. Seidl, C. L. Janssen, E. F. Valeev, M. L. Leininger,
    J. F. Gonthier, R. M. Richard, H. R. McAlexander, M. Saitow, X. Wang,
    P. Verma, M. H. Lechner, A. Jiang, S. Behnle, A. G. Heide,
    M. F. Herbst, D. L. Poole, T. Győri, E. C. Mitchell, J. P. Pederson,
    and A. M. Wallace

             Previous Authors, Complete List of Code Contributors,
                       and Citations for Specific Modules
    https://github.com/psi4/psi4/blob/master/codemeta.json
    https://github.com/psi4/psi4/graphs/contributors
    https://psicode.org/psi4manual/master/introduction.html#citing-psifour

    -----------------------------------------------------------------------


    Psi4 started on: Monday, 15 June 2026 06:35AM

    Process ID: 215698
    Host:       kichot
    PSIDATADIR: /opt/psi4/share/psi4
    Memory:     1.9 GiB
    Threads:    1
    Addons:     a̶d̶c̶c̶, a̶m̶b̶i̶t̶, b̶s̶e̶, c̶c̶t̶3̶, c̶f̶o̶u̶r̶, c̶h̶e̶m̶p̶s̶2̶, c̶p̶p̶e̶, d̶d̶x̶,
                d̶f̶t̶d̶3̶, d̶f̶t̶d̶4̶, d̶k̶h̶, e̶c̶p̶i̶n̶t̶, e̶i̶n̶s̶u̶m̶s̶, f̶o̶r̶t̶e̶,
                g̶a̶u̶x̶c̶, g̶c̶p̶, g̶d̶m̶a̶, g̶e̶o̶m̶e̶t̶r̶i̶c̶, g̶p̶u̶_̶d̶f̶c̶c̶,
                i̶n̶t̶e̶g̶r̶a̶t̶o̶r̶x̶x̶, i̶p̶i̶, l̶i̶b̶e̶f̶p̶, m̶d̶i̶, m̶p̶2̶d̶, m̶r̶c̶c̶,
                o̶o̶o̶, o̶p̶e̶n̶f̶e̶r̶m̶i̶o̶n̶p̶s̶i̶4̶, p̶c̶m̶s̶o̶l̶v̶e̶r̶,
                p̶s̶i̶4̶f̶o̶c̶k̶c̶i̶, p̶s̶i̶x̶a̶s̶, p̶y̶e̶i̶n̶s̶u̶m̶s̶, r̶e̶s̶p̶, s̶i̶m̶i̶n̶t̶,
                s̶n̶s̶m̶p̶2̶, v̶2̶r̶d̶m̶_̶c̶a̶s̶s̶c̶f̶

  ==> Input QCSchema <==

--------------------------------------------------------------------------
{'driver': 'energy',
 'extras': {'psiapi': True, 'wfn_qcvars_only': True},
 'id': None,
 'keywords': {'function_kwargs': {}},
 'model': {'basis': 'aug-cc-pvqz', 'method': 'scf'},
 'molecule': {'atom_labels': ['', ''],
              'atomic_numbers': [2, 10],
              'extras': {},
              'fix_com': True,
              'fix_orientation': True,
              'fragment_charges': [0.0, 0.0],
              'fragment_multiplicities': [1, 1],
              'fragments': [[0], [1]],
              'geometry': [0.0, 0.0, -4.7235050799945, 0.0, 0.0, 0.9456732963789],
              'mass_numbers': [4, 20],
              'masses': [4.00260325413, 19.9924401762],
              'molecular_charge': 0.0,
              'molecular_multiplicity': 1,
              'name': 'He-Ne ([0],[1])',
              'provenance': {'creator': 'QCElemental',
                             'routine': 'qcelemental.molparse.from_schema',
                             'version': '0.29.0'},
              'real': [True, False],
              'schema_name': 'qcschema_molecule',
              'schema_version': 2,
              'symbols': ['He', 'Ne'],
              'validated': True},
 'protocols': {'stdout': True},
 'provenance': {'creator': 'QCElemental', 'routine': 'qcelemental.models.results', 'version': '0.29.0'},
 'schema_name': 'qcschema_input',
 'schema_version': 1}
--------------------------------------------------------------------------

Scratch directory: /scratch/lukasz/psi4/
   => Libint2 <=

    Primary   basis highest AM E, G, H:  5, 4, 3
    Auxiliary basis highest AM E, G, H:  6, 5, 4
    Onebody   basis highest AM E, G, H:  6, 5, 4
    Solid Harmonics ordering:            Gaussian

*** tstart() called on kichot
*** at Mon Jun 15 06:35:42 2026

   => Loading Basis Set <=

    Name: AUG-CC-PVQZ
    Role: ORBITAL
    Keyword: BASIS
    atoms 1 entry HE         line    72 file /opt/psi4/share/psi4/basis/aug-cc-pvqz.gbs 
    atoms 2 entry NE         line   543 file /opt/psi4/share/psi4/basis/aug-cc-pvqz.gbs 


         ---------------------------------------------------------
                                   SCF
               by Justin Turney, Rob Parrish, Andy Simmonett
                          and Daniel G. A. Smith
                              RHF Reference
                        1 Threads,   1907 MiB Core
         ---------------------------------------------------------

  ==> Geometry <==

    Molecular point group: c2v
    Full point group: C_inf_v

    Geometry (in Bohr), charge = 0, multiplicity = 1:

       Center              X                  Y                   Z               Mass       
    ------------   -----------------  -----------------  -----------------  -----------------
         HE           0.000000000000     0.000000000000    -4.723505079995     4.002603254130
      Gh(NE)          0.000000000000     0.000000000000     0.945673296379    19.992440176200

  Running in c2v symmetry.

  Rotational constants: A = ************  B =      0.56165  C =      0.56165 [cm^-1]
  Rotational constants: A = ************  B =  16837.89826  C =  16837.89826 [MHz]
  Nuclear repulsion =    0.000000000000000

  Charge       = 0
  Multiplicity = 1
  Electrons    = 2
  Nalpha       = 1
  Nbeta        = 1

  ==> Algorithm <==

  SCF Algorithm Type is DF.
  DIIS enabled.
  MOM disabled.
  Fractional occupation disabled.
  Guess Type is SAD.
  Energy threshold   = 1.00e-06
  Density threshold  = 1.00e-06
  Integral threshold = 1.00e-12

  ==> Primary Basis <==

  Basis Set: AUG-CC-PVQZ
    Blend: AUG-CC-PVQZ
    Number of shells: 34
    Number of basis functions: 126
    Number of Cartesian functions: 160
    Spherical Harmonics?: true
    Max angular momentum: 4

   => Loading Basis Set <=

    Name: (AUG-CC-PVQZ AUX)
    Role: JKFIT
    Keyword: DF_BASIS_SCF
    atoms 1 entry HE         line    34 file /opt/psi4/share/psi4/basis/def2-universal-jkfit.gbs 
    atoms 2 entry NE         line   458 file /opt/psi4/share/psi4/basis/aug-cc-pvqz-jkfit.gbs 

  ==> Integral Setup <==

  DFHelper Memory: AOs need 0.022 GiB; user supplied 1.397 GiB. 
  SCF_SUBTYPE=INCORE selected. In-core MEM_DF algorithm will be used.
  Using in-core AOs.

  ==> MemDFJK: Density-Fitted J/K Matrices <==

    J tasked:                   Yes
    K tasked:                   Yes
    wK tasked:                   No
    OpenMP threads:               1
    Memory [MiB]:              1430
    Algorithm:                 Core
    Schwarz Cutoff:           1E-12
    Mask sparsity (%):      11.2245
    Fitting Condition:        1E-10

   => Auxiliary Basis Set <=

  Basis Set: (AUG-CC-PVQZ AUX)
    Blend: AUG-CC-PVQZ-JKFIT + DEF2-UNIVERSAL-JKFIT
    Number of shells: 43
    Number of basis functions: 165
    Number of Cartesian functions: 223
    Spherical Harmonics?: true
    Max angular momentum: 5

  Minimum eigenvalue in the overlap matrix is 3.2366262602E-03.
  Reciprocal condition number of the overlap matrix is 9.4365410713E-04.
    Using symmetric orthogonalization.

  ==> Pre-Iterations <==

  SCF Guess: Superposition of Atomic Densities via on-the-fly atomic UHF (no occupation information).

   -------------------------
    Irrep   Nso     Nmo    
   -------------------------
     A1        50      50 
     A2        16      16 
     B1        30      30 
     B2        30      30 
   -------------------------
    Total     126     126
   -------------------------

  ==> Iterations <==

                           Total Energy        Delta E     RMS |[F,P]|

   @DF-RHF iter SAD:    -2.86154394352488   -2.86154e+00   0.00000e+00 
   @DF-RHF iter   1:    -2.86154491077227   -9.67247e-07   2.03956e-06 DIIS
   @DF-RHF iter   2:    -2.86154492099972   -1.02275e-08   2.37506e-07 DIIS
  Energy and wave function converged.


  ==> Post-Iterations <==

    Orbital Energies [Eh]
    ---------------------

    Doubly Occupied:                                                      

       1A1    -0.917935  

    Virtual:                                                              

       2A1     0.091289     3A1     0.152522     1B2     0.185228  
       1B1     0.185228     4A1     0.214348     2B2     0.361260  
       2B1     0.361260     5A1     0.444701     6A1     0.667940  
       7A1     0.744882     8A1     0.812343     3B2     0.813797  
       3B1     0.813797     4B2     0.870405     4B1     0.870405  
       9A1     0.878299     1A2     0.878299    10A1     0.971751  
      11A1     1.150888     2A2     1.150888     5B2     1.187021  
       5B1     1.187021    12A1     1.308334     6B2     1.490279  
       6B1     1.490279    13A1     1.625840    14A1     2.457873  
      15A1     2.753525     7B2     2.754059     7B1     2.754059  
       3A2     2.817528    16A1     2.817528     8B2     2.817528  
       8B1     2.817528     9B2     2.819672     9B1     2.819672  
      17A1     2.820364    18A1     2.982950    10B2     2.997301  
      10B1     2.997301    19A1     3.016149     4A2     3.016149  
      11B1     3.017255    11B2     3.017255    20A1     3.021347  
      21A1     3.083878     5A2     3.083878    12B2     3.124583  
      12B1     3.124583    22A1     3.313626    23A1     4.588392  
       6A2     4.588392    13B1     4.602538    13B2     4.602538  
      24A1     4.685158    14B2     5.140672    14B1     5.140672  
      25A1     5.232794     7A2     6.385367    26A1     6.385367  
      15B2     6.385368    15B1     6.385368     8A2     6.385373  
      27A1     6.385373    16B2     6.385801    16B1     6.385801  
      28A1     6.388693    29A1     7.399090    17B1     8.274561  
      17B2     8.274561     9A2     8.274579    30A1     8.274579  
      18B1     8.277316    18B2     8.277316    31A1     8.302028  
      19B1     8.743244    19B2     8.743244    32A1     8.770939  
      33A1     9.462311    10A2     9.462311    20B2     9.472208  
      20B1     9.472208    34A1     9.552891    21B2    12.577074  
      21B1    12.577074    35A1    12.577103    11A2    12.577103  
      22B1    12.579071    22B2    12.579071    36A1    12.590049  
      37A1    13.656386    38A1    16.645550    12A2    16.645550  
      23B2    16.652407    23B1    16.652407    39A1    16.697265  
      24B2    18.099428    24B1    18.099428    40A1    18.161679  
      41A1    18.907885    13A2    18.907885    25B1    18.907885  
      25B2    18.907885    14A2    18.907887    42A1    18.907887  
      26B2    18.908078    26B1    18.908078    43A1    18.909410  
      27B2    24.819964    27B1    24.819964    15A2    24.819976  
      44A1    24.819976    28B2    24.821235    28B1    24.821235  
      45A1    24.834031    46A1    29.202866    16A2    29.202866  
      29B2    29.209028    29B1    29.209028    47A1    29.260561  
      48A1    30.850545    30B1    34.251340    30B2    34.251340  
      49A1    34.276517    50A1   194.348717  

    Final Occupation by Irrep:
             A1    A2    B1    B2 
    DOCC [     1,    0,    0,    0 ]
    NA   [     1,    0,    0,    0 ]
    NB   [     1,    0,    0,    0 ]

  @DF-RHF Final Energy:    -2.86154492099972

   => Energetics <=

    Nuclear Repulsion Energy =              0.0000000000000000
    One-Electron Energy =                  -3.8872197994917617
    Two-Electron Energy =                   1.0256748784920444
    Total Energy =                         -2.8615449209997172

Computation Completed


Properties will be evaluated at   0.000000,   0.000000,   0.000000 [a0]

Properties computed using the SCF density matrix


 Multipole Moments:

 ------------------------------------------------------------------------------------
     Multipole            Electronic (a.u.)      Nuclear  (a.u.)        Total (a.u.)
 ------------------------------------------------------------------------------------

 L = 1.  Multiply by 2.5417464519 to convert [e a0] to [Debye]
 Dipole X            :          0.0000000            0.0000000            0.0000000
 Dipole Y            :          0.0000000            0.0000000            0.0000000
 Dipole Z            :          9.4470213           -9.4470102            0.0000112
 Magnitude           :                                                    0.0000112

 ------------------------------------------------------------------------------------

*** tstop() called on kichot at Mon Jun 15 06:35:43 2026
Module time:
	user time   =       0.37 seconds =       0.01 minutes
	system time =       0.01 seconds =       0.00 minutes
	total time  =          1 seconds =       0.02 minutes
Total time:
	user time   =       4.15 seconds =       0.07 minutes
	system time =       0.09 seconds =       0.00 minutes
	total time  =          5 seconds =       0.08 minutes

    Psi4 stopped on: Monday, 15 June 2026 06:35AM
    Psi4 wall time for execution: 0:00:00.41


    -----------------------------------------------------------------------
          Psi4: An Open-Source Ab Initio Electronic Structure Package
                               Psi4 1.11a1.dev42 

                         Git: Rev {master} 144882d 


    D. G. A. Smith, L. A. Burns, A. C. Simmonett, R. M. Parrish,
    M. C. Schieber, R. Galvelis, P. Kraus, H. Kruse, R. Di Remigio,
    A. Alenaizan, A. M. James, S. Lehtola, J. P. Misiewicz, M. Scheurer,
    R. A. Shaw, J. B. Schriber, Y. Xie, Z. L. Glick, D. A. Sirianni,
    J. S. O'Brien, J. M. Waldrop, A. Kumar, E. G. Hohenstein,
    B. P. Pritchard, B. R. Brooks, H. F. Schaefer III, A. Yu. Sokolov,
    K. Patkowski, A. E. DePrince III, U. Bozkaya, R. A. King,
    F. A. Evangelista, J. M. Turney, T. D. Crawford, C. D. Sherrill,
    J. Chem. Phys. 152(18) 184108 (2020). https://doi.org/10.1063/5.0006002

                            Additional Code Authors
    E. T. Seidl, C. L. Janssen, E. F. Valeev, M. L. Leininger,
    J. F. Gonthier, R. M. Richard, H. R. McAlexander, M. Saitow, X. Wang,
    P. Verma, M. H. Lechner, A. Jiang, S. Behnle, A. G. Heide,
    M. F. Herbst, D. L. Poole, T. Győri, E. C. Mitchell, J. P. Pederson,
    and A. M. Wallace

             Previous Authors, Complete List of Code Contributors,
                       and Citations for Specific Modules
    https://github.com/psi4/psi4/blob/master/codemeta.json
    https://github.com/psi4/psi4/graphs/contributors
    https://psicode.org/psi4manual/master/introduction.html#citing-psifour

    -----------------------------------------------------------------------


    Psi4 started on: Monday, 15 June 2026 06:35AM

    Process ID: 215698
    Host:       kichot
    PSIDATADIR: /opt/psi4/share/psi4
    Memory:     1.9 GiB
    Threads:    1
    Addons:     a̶d̶c̶c̶, a̶m̶b̶i̶t̶, b̶s̶e̶, c̶c̶t̶3̶, c̶f̶o̶u̶r̶, c̶h̶e̶m̶p̶s̶2̶, c̶p̶p̶e̶, d̶d̶x̶,
                d̶f̶t̶d̶3̶, d̶f̶t̶d̶4̶, d̶k̶h̶, e̶c̶p̶i̶n̶t̶, e̶i̶n̶s̶u̶m̶s̶, f̶o̶r̶t̶e̶,
                g̶a̶u̶x̶c̶, g̶c̶p̶, g̶d̶m̶a̶, g̶e̶o̶m̶e̶t̶r̶i̶c̶, g̶p̶u̶_̶d̶f̶c̶c̶,
                i̶n̶t̶e̶g̶r̶a̶t̶o̶r̶x̶x̶, i̶p̶i̶, l̶i̶b̶e̶f̶p̶, m̶d̶i̶, m̶p̶2̶d̶, m̶r̶c̶c̶,
                o̶o̶o̶, o̶p̶e̶n̶f̶e̶r̶m̶i̶o̶n̶p̶s̶i̶4̶, p̶c̶m̶s̶o̶l̶v̶e̶r̶,
                p̶s̶i̶4̶f̶o̶c̶k̶c̶i̶, p̶s̶i̶x̶a̶s̶, p̶y̶e̶i̶n̶s̶u̶m̶s̶, r̶e̶s̶p̶, s̶i̶m̶i̶n̶t̶,
                s̶n̶s̶m̶p̶2̶, v̶2̶r̶d̶m̶_̶c̶a̶s̶s̶c̶f̶

  ==> Input QCSchema <==

--------------------------------------------------------------------------
{'driver': 'energy',
 'extras': {'psiapi': True, 'wfn_qcvars_only': True},
 'id': None,
 'keywords': {'function_kwargs': {}},
 'model': {'basis': 'aug-cc-pvqz', 'method': 'scf'},
 'molecule': {'atom_labels': ['', ''],
              'atomic_numbers': [2, 10],
              'extras': {},
              'fix_com': True,
              'fix_orientation': True,
              'fragment_charges': [0.0, 0.0],
              'fragment_multiplicities': [1, 1],
              'fragments': [[0], [1]],
              'geometry': [0.0, 0.0, -4.7235050799945, 0.0, 0.0, 0.9456732963789],
              'mass_numbers': [4, 20],
              'masses': [4.00260325413, 19.9924401762],
              'molecular_charge': 0.0,
              'molecular_multiplicity': 1,
              'name': 'He-Ne ([0, 1],[])',
              'provenance': {'creator': 'QCElemental',
                             'routine': 'qcelemental.molparse.from_schema',
                             'version': '0.29.0'},
              'real': [True, True],
              'schema_name': 'qcschema_molecule',
              'schema_version': 2,
              'symbols': ['He', 'Ne'],
              'validated': True},
 'protocols': {'stdout': True},
 'provenance': {'creator': 'QCElemental', 'routine': 'qcelemental.models.results', 'version': '0.29.0'},
 'schema_name': 'qcschema_input',
 'schema_version': 1}
--------------------------------------------------------------------------

Scratch directory: /scratch/lukasz/psi4/
   => Libint2 <=

    Primary   basis highest AM E, G, H:  5, 4, 3
    Auxiliary basis highest AM E, G, H:  6, 5, 4
    Onebody   basis highest AM E, G, H:  6, 5, 4
    Solid Harmonics ordering:            Gaussian

*** tstart() called on kichot
*** at Mon Jun 15 06:35:43 2026

   => Loading Basis Set <=

    Name: AUG-CC-PVQZ
    Role: ORBITAL
    Keyword: BASIS
    atoms 1 entry HE         line    72 file /opt/psi4/share/psi4/basis/aug-cc-pvqz.gbs 
    atoms 2 entry NE         line   543 file /opt/psi4/share/psi4/basis/aug-cc-pvqz.gbs 


         ---------------------------------------------------------
                                   SCF
               by Justin Turney, Rob Parrish, Andy Simmonett
                          and Daniel G. A. Smith
                              RHF Reference
                        1 Threads,   1907 MiB Core
         ---------------------------------------------------------

  ==> Geometry <==

    Molecular point group: c2v
    Full point group: C_inf_v

    Geometry (in Bohr), charge = 0, multiplicity = 1:

       Center              X                  Y                   Z               Mass       
    ------------   -----------------  -----------------  -----------------  -----------------
         HE           0.000000000000     0.000000000000    -4.723505079995     4.002603254130
         NE           0.000000000000     0.000000000000     0.945673296379    19.992440176200

  Running in c2v symmetry.

  Rotational constants: A = ************  B =      0.56165  C =      0.56165 [cm^-1]
  Rotational constants: A = ************  B =  16837.89826  C =  16837.89826 [MHz]
  Nuclear repulsion =    3.527848071133385

  Charge       = 0
  Multiplicity = 1
  Electrons    = 12
  Nalpha       = 6
  Nbeta        = 6

  ==> Algorithm <==

  SCF Algorithm Type is DF.
  DIIS enabled.
  MOM disabled.
  Fractional occupation disabled.
  Guess Type is SAD.
  Energy threshold   = 1.00e-06
  Density threshold  = 1.00e-06
  Integral threshold = 1.00e-12

  ==> Primary Basis <==

  Basis Set: AUG-CC-PVQZ
    Blend: AUG-CC-PVQZ
    Number of shells: 34
    Number of basis functions: 126
    Number of Cartesian functions: 160
    Spherical Harmonics?: true
    Max angular momentum: 4

   => Loading Basis Set <=

    Name: (AUG-CC-PVQZ AUX)
    Role: JKFIT
    Keyword: DF_BASIS_SCF
    atoms 1 entry HE         line    34 file /opt/psi4/share/psi4/basis/def2-universal-jkfit.gbs 
    atoms 2 entry NE         line   458 file /opt/psi4/share/psi4/basis/aug-cc-pvqz-jkfit.gbs 

  ==> Integral Setup <==

  DFHelper Memory: AOs need 0.022 GiB; user supplied 1.397 GiB. 
  SCF_SUBTYPE=INCORE selected. In-core MEM_DF algorithm will be used.
  Using in-core AOs.

  ==> MemDFJK: Density-Fitted J/K Matrices <==

    J tasked:                   Yes
    K tasked:                   Yes
    wK tasked:                   No
    OpenMP threads:               1
    Memory [MiB]:              1430
    Algorithm:                 Core
    Schwarz Cutoff:           1E-12
    Mask sparsity (%):      11.2245
    Fitting Condition:        1E-10

   => Auxiliary Basis Set <=

  Basis Set: (AUG-CC-PVQZ AUX)
    Blend: AUG-CC-PVQZ-JKFIT + DEF2-UNIVERSAL-JKFIT
    Number of shells: 43
    Number of basis functions: 165
    Number of Cartesian functions: 223
    Spherical Harmonics?: true
    Max angular momentum: 5

  Minimum eigenvalue in the overlap matrix is 3.2366262602E-03.
  Reciprocal condition number of the overlap matrix is 9.4365410713E-04.
    Using symmetric orthogonalization.

  ==> Pre-Iterations <==

  SCF Guess: Superposition of Atomic Densities via on-the-fly atomic UHF (no occupation information).

   -------------------------
    Irrep   Nso     Nmo    
   -------------------------
     A1        50      50 
     A2        16      16 
     B1        30      30 
     B2        30      30 
   -------------------------
    Total     126     126
   -------------------------

  ==> Iterations <==

                           Total Energy        Delta E     RMS |[F,P]|

   @DF-RHF iter SAD:  -131.40538138355436   -1.31405e+02   0.00000e+00 
   @DF-RHF iter   1:  -131.40524558793416    1.35796e-04   2.51068e-05 DIIS
   @DF-RHF iter   2:  -131.40524604155294   -4.53619e-07   1.25364e-05 DIIS
   @DF-RHF iter   3:  -131.40524616665644   -1.25103e-07   5.40262e-07 DIIS
  Energy and wave function converged.


  ==> Post-Iterations <==

    Orbital Energies [Eh]
    ---------------------

    Doubly Occupied:                                                      

       1A1   -32.774112     2A1    -1.931154     3A1    -0.918032  
       1B2    -0.850589     1B1    -0.850589     4A1    -0.850494  

    Virtual:                                                              

       5A1     0.100619     2B2     0.203636     2B1     0.203636  
       6A1     0.205859     7A1     0.247971     3B1     0.362185  
       3B2     0.362185     8A1     0.464243     9A1     0.664505  
       4B2     0.817626     4B1     0.817626     1A2     0.821445  
      10A1     0.821445    11A1     0.894367    12A1     1.047825  
       5B2     1.051803     5B1     1.051803     2A2     1.150724  
      13A1     1.150724     6B2     1.181020     6B1     1.181020  
      14A1     1.301511    15A1     1.446578     7B2     1.489353  
       7B1     1.489353    16A1     1.635415     3A2     2.568652  
      17A1     2.568652     8B2     2.578172     8B1     2.578172  
      18A1     2.635169     9B2     2.696285     9B1     2.696285  
       4A2     2.696299    19A1     2.696299    10B2     2.699236  
      10B1     2.699236    20A1     2.721411    21A1     2.987311  
      11B1     3.017273    11B2     3.017273    22A1     3.017570  
       5A2     3.017570    12B2     3.029257    12B1     3.029257  
      23A1     3.115791    13B1     4.126301    13B2     4.126301  
      24A1     4.150127    25A1     4.588415     6A2     4.588415  
      14B1     4.601209    14B2     4.601209    26A1     4.692777  
      15B2     5.140381    15B1     5.140381    27A1     5.231695  
      28A1     6.141453     7A2     6.141453    16B2     6.141456  
      16B1     6.141456     8A2     6.141460    29A1     6.141460  
      17B2     6.141898    17B1     6.141898    30A1     6.144504  
      31A1     6.310607     9A2     7.245306    32A1     7.245306  
      18B2     7.256329    18B1     7.256329    33A1     7.327280  
      19B1     7.470932    19B2     7.470932    10A2     7.470954  
      34A1     7.470954    20B2     7.473955    20B1     7.473955  
      35A1     7.517420    21B1    12.577153    21B2    12.577153  
      36A1    12.577176    11A2    12.577176    22B1    12.579005  
      22B2    12.579005    37A1    12.588508    38A1    13.654781  
      23B2    15.958045    23B1    15.958045    39A1    15.979424  
      12A2    16.645641    40A1    16.645641    24B1    16.652241  
      24B2    16.652241    41A1    16.700839    42A1    17.283717  
      13A2    17.283717    25B1    17.283724    25B2    17.283724  
      14A2    17.283731    43A1    17.283731    26B2    17.283907  
      26B1    17.283907    44A1    17.285335    27B2    18.099470  
      27B1    18.099470    45A1    18.161738    28B2    20.843243  
      28B1    20.843243    15A2    20.843263    46A1    20.843263  
      29B2    20.844600    29B1    20.844600    47A1    20.856835  
      48A1    21.324700    16A2    21.324700    30B2    21.331575  
      30B1    21.331575    49A1    21.389925    50A1    67.331812  

    Final Occupation by Irrep:
             A1    A2    B1    B2 
    DOCC [     4,    0,    1,    1 ]
    NA   [     4,    0,    1,    1 ]
    NB   [     4,    0,    1,    1 ]

  @DF-RHF Final Energy:  -131.40524616665644

   => Energetics <=

    Nuclear Repulsion Energy =              3.5278480711333855
    One-Electron Energy =                -193.5163175534576112
    Two-Electron Energy =                  58.5832233156677944
    Total Energy =                       -131.4052461666564398

Computation Completed


Properties will be evaluated at   0.000000,   0.000000,   0.000000 [a0]

Properties computed using the SCF density matrix


 Multipole Moments:

 ------------------------------------------------------------------------------------
     Multipole            Electronic (a.u.)      Nuclear  (a.u.)        Total (a.u.)
 ------------------------------------------------------------------------------------

 L = 1.  Multiply by 2.5417464519 to convert [e a0] to [Debye]
 Dipole X            :          0.0000000            0.0000000            0.0000000
 Dipole Y            :          0.0000000            0.0000000            0.0000000
 Dipole Z            :         -0.0095325            0.0097228            0.0001903
 Magnitude           :                                                    0.0001903

 ------------------------------------------------------------------------------------

*** tstop() called on kichot at Mon Jun 15 06:35:43 2026
Module time:
	user time   =       0.57 seconds =       0.01 minutes
	system time =       0.01 seconds =       0.00 minutes
	total time  =          0 seconds =       0.00 minutes
Total time:
	user time   =       4.77 seconds =       0.08 minutes
	system time =       0.10 seconds =       0.00 minutes
	total time  =          5 seconds =       0.08 minutes

    Psi4 stopped on: Monday, 15 June 2026 06:35AM
    Psi4 wall time for execution: 0:00:00.61


  //>>>>>>>>>>>>>>>>>>>>>>>>>>>>>>>>>>>//
  //          ManyBody Results         //
  //<<<<<<<<<<<<<<<<<<<<<<<<<<<<<<<<<<<//


   ==> N-Body: Counterpoise Corrected (CP) energies <==

              MC n-Body  Total Energy            Interaction Energy                          N-body Contribution to Interaction Energy
                         [Eh]                    [Eh]                  [kcal/mol]            [Eh]                  [kcal/mol]
              §A  1        N/A                   0.000000000000        0.000000000000        0.000000000000        0.000000000000
     FULL/RTN §A  2        N/A                   0.000058267581        0.036563459223        0.000058267581        0.036563459223

   MC Legend: §A: "(auto)"


Scratch directory: /scratch/lukasz/psi4/

  //>>>>>>>>>>>>>>>>>>>>>>>>>>>>>>>>>>>//
  //   ManyBody Setup: N-Body Levels 2 //
  //<<<<<<<<<<<<<<<<<<<<<<<<<<<<<<<<<<<//

    Model chemistry "(auto)" (§A):          3
        Number of 1-body computations:      2 (nocp: 0, cp: 2, vmfc_compute: 0)
        Number of 2-body computations:      1 (nocp: 0, cp: 1, vmfc_compute: 0)

    -----------------------------------------------------------------------
          Psi4: An Open-Source Ab Initio Electronic Structure Package
                               Psi4 1.11a1.dev42 

                         Git: Rev {master} 144882d 


    D. G. A. Smith, L. A. Burns, A. C. Simmonett, R. M. Parrish,
    M. C. Schieber, R. Galvelis, P. Kraus, H. Kruse, R. Di Remigio,
    A. Alenaizan, A. M. James, S. Lehtola, J. P. Misiewicz, M. Scheurer,
    R. A. Shaw, J. B. Schriber, Y. Xie, Z. L. Glick, D. A. Sirianni,
    J. S. O'Brien, J. M. Waldrop, A. Kumar, E. G. Hohenstein,
    B. P. Pritchard, B. R. Brooks, H. F. Schaefer III, A. Yu. Sokolov,
    K. Patkowski, A. E. DePrince III, U. Bozkaya, R. A. King,
    F. A. Evangelista, J. M. Turney, T. D. Crawford, C. D. Sherrill,
    J. Chem. Phys. 152(18) 184108 (2020). https://doi.org/10.1063/5.0006002

                            Additional Code Authors
    E. T. Seidl, C. L. Janssen, E. F. Valeev, M. L. Leininger,
    J. F. Gonthier, R. M. Richard, H. R. McAlexander, M. Saitow, X. Wang,
    P. Verma, M. H. Lechner, A. Jiang, S. Behnle, A. G. Heide,
    M. F. Herbst, D. L. Poole, T. Győri, E. C. Mitchell, J. P. Pederson,
    and A. M. Wallace

             Previous Authors, Complete List of Code Contributors,
                       and Citations for Specific Modules
    https://github.com/psi4/psi4/blob/master/codemeta.json
    https://github.com/psi4/psi4/graphs/contributors
    https://psicode.org/psi4manual/master/introduction.html#citing-psifour

    -----------------------------------------------------------------------


    Psi4 started on: Monday, 15 June 2026 06:35AM

    Process ID: 215698
    Host:       kichot
    PSIDATADIR: /opt/psi4/share/psi4
    Memory:     1.9 GiB
    Threads:    1
    Addons:     a̶d̶c̶c̶, a̶m̶b̶i̶t̶, b̶s̶e̶, c̶c̶t̶3̶, c̶f̶o̶u̶r̶, c̶h̶e̶m̶p̶s̶2̶, c̶p̶p̶e̶, d̶d̶x̶,
                d̶f̶t̶d̶3̶, d̶f̶t̶d̶4̶, d̶k̶h̶, e̶c̶p̶i̶n̶t̶, e̶i̶n̶s̶u̶m̶s̶, f̶o̶r̶t̶e̶,
                g̶a̶u̶x̶c̶, g̶c̶p̶, g̶d̶m̶a̶, g̶e̶o̶m̶e̶t̶r̶i̶c̶, g̶p̶u̶_̶d̶f̶c̶c̶,
                i̶n̶t̶e̶g̶r̶a̶t̶o̶r̶x̶x̶, i̶p̶i̶, l̶i̶b̶e̶f̶p̶, m̶d̶i̶, m̶p̶2̶d̶, m̶r̶c̶c̶,
                o̶o̶o̶, o̶p̶e̶n̶f̶e̶r̶m̶i̶o̶n̶p̶s̶i̶4̶, p̶c̶m̶s̶o̶l̶v̶e̶r̶,
                p̶s̶i̶4̶f̶o̶c̶k̶c̶i̶, p̶s̶i̶x̶a̶s̶, p̶y̶e̶i̶n̶s̶u̶m̶s̶, r̶e̶s̶p̶, s̶i̶m̶i̶n̶t̶,
                s̶n̶s̶m̶p̶2̶, v̶2̶r̶d̶m̶_̶c̶a̶s̶s̶c̶f̶

  ==> Input QCSchema <==

--------------------------------------------------------------------------
{'driver': 'energy',
 'extras': {'psiapi': True, 'wfn_qcvars_only': True},
 'id': None,
 'keywords': {'function_kwargs': {}},
 'model': {'basis': 'aug-cc-pvqz', 'method': 'mp2'},
 'molecule': {'atom_labels': ['', ''],
              'atomic_numbers': [2, 10],
              'extras': {},
              'fix_com': True,
              'fix_orientation': True,
              'fragment_charges': [0.0, 0.0],
              'fragment_multiplicities': [1, 1],
              'fragments': [[0], [1]],
              'geometry': [0.0, 0.0, -4.7235050799945, 0.0, 0.0, 0.9456732963789],
              'mass_numbers': [4, 20],
              'masses': [4.00260325413, 19.9924401762],
              'molecular_charge': 0.0,
              'molecular_multiplicity': 1,
              'name': 'He-Ne ([1],[0])',
              'provenance': {'creator': 'QCElemental',
                             'routine': 'qcelemental.molparse.from_schema',
                             'version': '0.29.0'},
              'real': [False, True],
              'schema_name': 'qcschema_molecule',
              'schema_version': 2,
              'symbols': ['He', 'Ne'],
              'validated': True},
 'protocols': {'stdout': True},
 'provenance': {'creator': 'QCElemental', 'routine': 'qcelemental.models.results', 'version': '0.29.0'},
 'schema_name': 'qcschema_input',
 'schema_version': 1}
--------------------------------------------------------------------------

Scratch directory: /scratch/lukasz/psi4/
    SCF Algorithm Type (re)set to DF.
   => Libint2 <=

    Primary   basis highest AM E, G, H:  5, 4, 3
    Auxiliary basis highest AM E, G, H:  6, 5, 4
    Onebody   basis highest AM E, G, H:  6, 5, 4
    Solid Harmonics ordering:            Gaussian

*** tstart() called on kichot
*** at Mon Jun 15 06:35:43 2026

   => Loading Basis Set <=

    Name: AUG-CC-PVQZ
    Role: ORBITAL
    Keyword: BASIS
    atoms 1 entry HE         line    72 file /opt/psi4/share/psi4/basis/aug-cc-pvqz.gbs 
    atoms 2 entry NE         line   543 file /opt/psi4/share/psi4/basis/aug-cc-pvqz.gbs 


         ---------------------------------------------------------
                                   SCF
               by Justin Turney, Rob Parrish, Andy Simmonett
                          and Daniel G. A. Smith
                              RHF Reference
                        1 Threads,   1907 MiB Core
         ---------------------------------------------------------

  ==> Geometry <==

    Molecular point group: c2v
    Full point group: C_inf_v

    Geometry (in Bohr), charge = 0, multiplicity = 1:

       Center              X                  Y                   Z               Mass       
    ------------   -----------------  -----------------  -----------------  -----------------
      Gh(HE)          0.000000000000     0.000000000000    -4.723505079995     4.002603254130
         NE           0.000000000000     0.000000000000     0.945673296379    19.992440176200

  Running in c2v symmetry.

  Rotational constants: A = ************  B =      0.56165  C =      0.56165 [cm^-1]
  Rotational constants: A = ************  B =  16837.89826  C =  16837.89826 [MHz]
  Nuclear repulsion =    0.000000000000000

  Charge       = 0
  Multiplicity = 1
  Electrons    = 10
  Nalpha       = 5
  Nbeta        = 5

  ==> Algorithm <==

  SCF Algorithm Type is DF.
  DIIS enabled.
  MOM disabled.
  Fractional occupation disabled.
  Guess Type is SAD.
  Energy threshold   = 1.00e-08
  Density threshold  = 1.00e-08
  Integral threshold = 1.00e-12

  ==> Primary Basis <==

  Basis Set: AUG-CC-PVQZ
    Blend: AUG-CC-PVQZ
    Number of shells: 34
    Number of basis functions: 126
    Number of Cartesian functions: 160
    Spherical Harmonics?: true
    Max angular momentum: 4

   => Loading Basis Set <=

    Name: (AUG-CC-PVQZ AUX)
    Role: JKFIT
    Keyword: DF_BASIS_SCF
    atoms 1 entry HE         line    34 file /opt/psi4/share/psi4/basis/def2-universal-jkfit.gbs 
    atoms 2 entry NE         line   458 file /opt/psi4/share/psi4/basis/aug-cc-pvqz-jkfit.gbs 

  ==> Integral Setup <==

  DFHelper Memory: AOs need 0.022 GiB; user supplied 1.397 GiB. 
  SCF_SUBTYPE=INCORE selected. In-core MEM_DF algorithm will be used.
  Using in-core AOs.

  ==> MemDFJK: Density-Fitted J/K Matrices <==

    J tasked:                   Yes
    K tasked:                   Yes
    wK tasked:                   No
    OpenMP threads:               1
    Memory [MiB]:              1430
    Algorithm:                 Core
    Schwarz Cutoff:           1E-12
    Mask sparsity (%):      11.2245
    Fitting Condition:        1E-10

   => Auxiliary Basis Set <=

  Basis Set: (AUG-CC-PVQZ AUX)
    Blend: AUG-CC-PVQZ-JKFIT + DEF2-UNIVERSAL-JKFIT
    Number of shells: 43
    Number of basis functions: 165
    Number of Cartesian functions: 223
    Spherical Harmonics?: true
    Max angular momentum: 5

  Minimum eigenvalue in the overlap matrix is 3.2366262602E-03.
  Reciprocal condition number of the overlap matrix is 9.4365410713E-04.
    Using symmetric orthogonalization.

  ==> Pre-Iterations <==

  SCF Guess: Superposition of Atomic Densities via on-the-fly atomic UHF (no occupation information).

   -------------------------
    Irrep   Nso     Nmo    
   -------------------------
     A1        50      50 
     A2        16      16 
     B1        30      30 
     B2        30      30 
   -------------------------
    Total     126     126
   -------------------------

  ==> Iterations <==

                           Total Energy        Delta E     RMS |[F,P]|

   @DF-RHF iter SAD:  -128.54374146649201   -1.28544e+02   0.00000e+00 
   @DF-RHF iter   1:  -128.54375897948765   -1.75130e-05   2.40166e-05 DIIS
   @DF-RHF iter   2:  -128.54375939731599   -4.17828e-07   1.21293e-05 DIIS
   @DF-RHF iter   3:  -128.54375951323794   -1.15922e-07   4.07464e-07 DIIS
   @DF-RHF iter   4:  -128.54375951380379   -5.65848e-10   4.20230e-08 DIIS
   @DF-RHF iter   5:  -128.54375951381050   -6.70752e-12   4.08045e-09 DIIS
  Energy and wave function converged.


  ==> Post-Iterations <==

    Orbital Energies [Eh]
    ---------------------

    Doubly Occupied:                                                      

       1A1   -32.774196     2A1    -1.931196     3A1    -0.850648  
       1B2    -0.850640     1B1    -0.850640  

    Virtual:                                                              

       4A1     0.067211     5A1     0.202618     2B1     0.204666  
       2B2     0.204666     6A1     0.252774     7A1     0.377117  
       3B1     0.388016     3B2     0.388016     8A1     0.488910  
       4B2     0.819797     4B1     0.819797     1A2     0.821451  
       9A1     0.821451    10A1     0.864937    11A1     1.048508  
       5B2     1.051991     5B1     1.051991     2A2     1.175778  
      12A1     1.175778     6B2     1.205993     6B1     1.205993  
      13A1     1.308873    14A1     1.427035    15A1     1.465131  
       7B2     1.694613     7B1     1.694613    16A1     1.814208  
       3A2     2.568645    17A1     2.568645     8B2     2.579130  
       8B1     2.579130    18A1     2.638546     9B2     2.696286  
       9B1     2.696286     4A2     2.696300    19A1     2.696300  
      10B2     2.699722    10B1     2.699722    20A1     2.755349  
      11B2     3.049871    11B1     3.049871    21A1     3.050170  
       5A2     3.050170    12B2     3.061571    12B1     3.061571  
      22A1     3.116309    13B1     4.126296    13B2     4.126296  
      23A1     4.152829    24A1     4.615674    25A1     4.821203  
       6A2     4.821203    14B1     4.833988    14B2     4.833988  
      26A1     4.930714    15B2     5.879308    15B1     5.879308  
      27A1     5.958000    28A1     6.141442     7A2     6.141442  
      16B2     6.141444    16B1     6.141444     8A2     6.141451  
      29A1     6.141451    17B2     6.142052    17B1     6.142052  
      30A1     6.145850    31A1     6.312000     9A2     7.245272  
      32A1     7.245272    18B2     7.256598    18B1     7.256598  
      33A1     7.328417    19B1     7.470889    19B2     7.470889  
      10A2     7.470914    34A1     7.470914    20B2     7.474055  
      20B1     7.474055    35A1     7.520465    21B1    13.017961  
      21B2    13.017961    36A1    13.018000    11A2    13.018000  
      22B1    13.019832    22B2    13.019832    37A1    13.029472  
      23B2    15.958002    23B1    15.958002    38A1    15.982404  
      39A1    17.283677    12A2    17.283677    24B2    17.283678  
      24B1    17.283678    13A2    17.283679    40A1    17.283679  
      25B2    17.283773    25B1    17.283773    41A1    17.284393  
      14A2    17.904700    42A1    17.904700    26B2    17.911274  
      26B1    17.911274    43A1    17.956515    44A1    20.693989  
      27B2    20.756652    27B1    20.756652    45A1    20.799667  
      28B2    20.843196    28B1    20.843196    15A2    20.843205  
      46A1    20.843205    29B2    20.846245    29B1    20.846245  
      47A1    20.885877    48A1    21.324634    16A2    21.324634  
      30B2    21.332096    30B1    21.332096    49A1    21.397967  
      50A1    67.331741  

    Final Occupation by Irrep:
             A1    A2    B1    B2 
    DOCC [     3,    0,    1,    1 ]
    NA   [     3,    0,    1,    1 ]
    NB   [     3,    0,    1,    1 ]

  @DF-RHF Final Energy:  -128.54375951381050

   => Energetics <=

    Nuclear Repulsion Energy =              0.0000000000000000
    One-Electron Energy =                -182.5728778871106783
    Two-Electron Energy =                  54.0291183733001930
    Total Energy =                       -128.5437595138104712

Computation Completed


Properties will be evaluated at   0.000000,   0.000000,   0.000000 [a0]

Properties computed using the SCF density matrix


 Multipole Moments:

 ------------------------------------------------------------------------------------
     Multipole            Electronic (a.u.)      Nuclear  (a.u.)        Total (a.u.)
 ------------------------------------------------------------------------------------

 L = 1.  Multiply by 2.5417464519 to convert [e a0] to [Debye]
 Dipole X            :          0.0000000            0.0000000            0.0000000
 Dipole Y            :          0.0000000            0.0000000            0.0000000
 Dipole Z            :         -9.4565166            9.4567330            0.0002163
 Magnitude           :                                                    0.0002163

 ------------------------------------------------------------------------------------

*** tstop() called on kichot at Mon Jun 15 06:35:44 2026
Module time:
	user time   =       0.61 seconds =       0.01 minutes
	system time =       0.00 seconds =       0.00 minutes
	total time  =          1 seconds =       0.02 minutes
Total time:
	user time   =       5.49 seconds =       0.09 minutes
	system time =       0.10 seconds =       0.00 minutes
	total time  =          6 seconds =       0.10 minutes

*** tstart() called on kichot
*** at Mon Jun 15 06:35:44 2026


  //>>>>>>>>>>>>>>>>>>>>>>>>>>>>>>>>>>>//
  //               DFMP2               //
  //<<<<<<<<<<<<<<<<<<<<<<<<<<<<<<<<<<<//

   => Loading Basis Set <=

    Name: (AUG-CC-PVQZ AUX)
    Role: RIFIT
    Keyword: DF_BASIS_MP2
    atoms 1 entry HE         line    72 file /opt/psi4/share/psi4/basis/aug-cc-pvqz-ri.gbs 
    atoms 2 entry NE         line   480 file /opt/psi4/share/psi4/basis/aug-cc-pvqz-ri.gbs 

	 --------------------------------------------------------
	                          DF-MP2                         
	      2nd-Order Density-Fitted Moller-Plesset Theory     
	              RMP2 Wavefunction,   1 Threads             
	                                                         
	        Rob Parrish, Justin Turney, Andy Simmonett,      
	           Ed Hohenstein, and C. David Sherrill          
	 --------------------------------------------------------

   => Auxiliary Basis Set <=

  Basis Set: (AUG-CC-PVQZ AUX)
    Blend: AUG-CC-PVQZ-RI
    Number of shells: 54
    Number of basis functions: 230
    Number of Cartesian functions: 312
    Spherical Harmonics?: true
    Max angular momentum: 5

	 --------------------------------------------------------
	                 NBF =   126, NAUX =   230
	 --------------------------------------------------------
	   CLASS    FOCC     OCC    AOCC    AVIR     VIR    FVIR
	   PAIRS       0       5       5     121     121       0
	 --------------------------------------------------------

	-----------------------------------------------------------
	 ==================> DF-MP2 Energies <==================== 
	-----------------------------------------------------------
	 Reference Energy          =    -128.5437595138104996 [Eh]
	 Singles Energy            =      -0.0000000000000000 [Eh]
	 Same-Spin Energy          =      -0.0811539961160188 [Eh]
	 Opposite-Spin Energy      =      -0.2488454006250412 [Eh]
	 Correlation Energy        =      -0.3299993967410600 [Eh]
	 Total Energy              =    -128.8737589105515724 [Eh]
	-----------------------------------------------------------
	 ================> DF-SCS-MP2 Energies <================== 
	-----------------------------------------------------------
	 SCS Same-Spin Scale       =       0.3333333333333333 [-]
	 SCS Opposite-Spin Scale   =       1.2000000000000000 [-]
	 SCS Same-Spin Energy      =      -0.0270513320386729 [Eh]
	 SCS Opposite-Spin Energy  =      -0.2986144807500494 [Eh]
	 SCS Correlation Energy    =      -0.3256658127887224 [Eh]
	 SCS Total Energy          =    -128.8694253265992131 [Eh]
	-----------------------------------------------------------


*** tstop() called on kichot at Mon Jun 15 06:35:44 2026
Module time:
	user time   =       0.18 seconds =       0.00 minutes
	system time =       0.00 seconds =       0.00 minutes
	total time  =          0 seconds =       0.00 minutes
Total time:
	user time   =       5.67 seconds =       0.09 minutes
	system time =       0.10 seconds =       0.00 minutes
	total time  =          6 seconds =       0.10 minutes

    Psi4 stopped on: Monday, 15 June 2026 06:35AM
    Psi4 wall time for execution: 0:00:00.82


    -----------------------------------------------------------------------
          Psi4: An Open-Source Ab Initio Electronic Structure Package
                               Psi4 1.11a1.dev42 

                         Git: Rev {master} 144882d 


    D. G. A. Smith, L. A. Burns, A. C. Simmonett, R. M. Parrish,
    M. C. Schieber, R. Galvelis, P. Kraus, H. Kruse, R. Di Remigio,
    A. Alenaizan, A. M. James, S. Lehtola, J. P. Misiewicz, M. Scheurer,
    R. A. Shaw, J. B. Schriber, Y. Xie, Z. L. Glick, D. A. Sirianni,
    J. S. O'Brien, J. M. Waldrop, A. Kumar, E. G. Hohenstein,
    B. P. Pritchard, B. R. Brooks, H. F. Schaefer III, A. Yu. Sokolov,
    K. Patkowski, A. E. DePrince III, U. Bozkaya, R. A. King,
    F. A. Evangelista, J. M. Turney, T. D. Crawford, C. D. Sherrill,
    J. Chem. Phys. 152(18) 184108 (2020). https://doi.org/10.1063/5.0006002

                            Additional Code Authors
    E. T. Seidl, C. L. Janssen, E. F. Valeev, M. L. Leininger,
    J. F. Gonthier, R. M. Richard, H. R. McAlexander, M. Saitow, X. Wang,
    P. Verma, M. H. Lechner, A. Jiang, S. Behnle, A. G. Heide,
    M. F. Herbst, D. L. Poole, T. Győri, E. C. Mitchell, J. P. Pederson,
    and A. M. Wallace

             Previous Authors, Complete List of Code Contributors,
                       and Citations for Specific Modules
    https://github.com/psi4/psi4/blob/master/codemeta.json
    https://github.com/psi4/psi4/graphs/contributors
    https://psicode.org/psi4manual/master/introduction.html#citing-psifour

    -----------------------------------------------------------------------


    Psi4 started on: Monday, 15 June 2026 06:35AM

    Process ID: 215698
    Host:       kichot
    PSIDATADIR: /opt/psi4/share/psi4
    Memory:     1.9 GiB
    Threads:    1
    Addons:     a̶d̶c̶c̶, a̶m̶b̶i̶t̶, b̶s̶e̶, c̶c̶t̶3̶, c̶f̶o̶u̶r̶, c̶h̶e̶m̶p̶s̶2̶, c̶p̶p̶e̶, d̶d̶x̶,
                d̶f̶t̶d̶3̶, d̶f̶t̶d̶4̶, d̶k̶h̶, e̶c̶p̶i̶n̶t̶, e̶i̶n̶s̶u̶m̶s̶, f̶o̶r̶t̶e̶,
                g̶a̶u̶x̶c̶, g̶c̶p̶, g̶d̶m̶a̶, g̶e̶o̶m̶e̶t̶r̶i̶c̶, g̶p̶u̶_̶d̶f̶c̶c̶,
                i̶n̶t̶e̶g̶r̶a̶t̶o̶r̶x̶x̶, i̶p̶i̶, l̶i̶b̶e̶f̶p̶, m̶d̶i̶, m̶p̶2̶d̶, m̶r̶c̶c̶,
                o̶o̶o̶, o̶p̶e̶n̶f̶e̶r̶m̶i̶o̶n̶p̶s̶i̶4̶, p̶c̶m̶s̶o̶l̶v̶e̶r̶,
                p̶s̶i̶4̶f̶o̶c̶k̶c̶i̶, p̶s̶i̶x̶a̶s̶, p̶y̶e̶i̶n̶s̶u̶m̶s̶, r̶e̶s̶p̶, s̶i̶m̶i̶n̶t̶,
                s̶n̶s̶m̶p̶2̶, v̶2̶r̶d̶m̶_̶c̶a̶s̶s̶c̶f̶

  ==> Input QCSchema <==

--------------------------------------------------------------------------
{'driver': 'energy',
 'extras': {'psiapi': True, 'wfn_qcvars_only': True},
 'id': None,
 'keywords': {'function_kwargs': {}},
 'model': {'basis': 'aug-cc-pvqz', 'method': 'mp2'},
 'molecule': {'atom_labels': ['', ''],
              'atomic_numbers': [2, 10],
              'extras': {},
              'fix_com': True,
              'fix_orientation': True,
              'fragment_charges': [0.0, 0.0],
              'fragment_multiplicities': [1, 1],
              'fragments': [[0], [1]],
              'geometry': [0.0, 0.0, -4.7235050799945, 0.0, 0.0, 0.9456732963789],
              'mass_numbers': [4, 20],
              'masses': [4.00260325413, 19.9924401762],
              'molecular_charge': 0.0,
              'molecular_multiplicity': 1,
              'name': 'He-Ne ([0],[1])',
              'provenance': {'creator': 'QCElemental',
                             'routine': 'qcelemental.molparse.from_schema',
                             'version': '0.29.0'},
              'real': [True, False],
              'schema_name': 'qcschema_molecule',
              'schema_version': 2,
              'symbols': ['He', 'Ne'],
              'validated': True},
 'protocols': {'stdout': True},
 'provenance': {'creator': 'QCElemental', 'routine': 'qcelemental.models.results', 'version': '0.29.0'},
 'schema_name': 'qcschema_input',
 'schema_version': 1}
--------------------------------------------------------------------------

Scratch directory: /scratch/lukasz/psi4/
    SCF Algorithm Type (re)set to DF.
   => Libint2 <=

    Primary   basis highest AM E, G, H:  5, 4, 3
    Auxiliary basis highest AM E, G, H:  6, 5, 4
    Onebody   basis highest AM E, G, H:  6, 5, 4
    Solid Harmonics ordering:            Gaussian

*** tstart() called on kichot
*** at Mon Jun 15 06:35:44 2026

   => Loading Basis Set <=

    Name: AUG-CC-PVQZ
    Role: ORBITAL
    Keyword: BASIS
    atoms 1 entry HE         line    72 file /opt/psi4/share/psi4/basis/aug-cc-pvqz.gbs 
    atoms 2 entry NE         line   543 file /opt/psi4/share/psi4/basis/aug-cc-pvqz.gbs 


         ---------------------------------------------------------
                                   SCF
               by Justin Turney, Rob Parrish, Andy Simmonett
                          and Daniel G. A. Smith
                              RHF Reference
                        1 Threads,   1907 MiB Core
         ---------------------------------------------------------

  ==> Geometry <==

    Molecular point group: c2v
    Full point group: C_inf_v

    Geometry (in Bohr), charge = 0, multiplicity = 1:

       Center              X                  Y                   Z               Mass       
    ------------   -----------------  -----------------  -----------------  -----------------
         HE           0.000000000000     0.000000000000    -4.723505079995     4.002603254130
      Gh(NE)          0.000000000000     0.000000000000     0.945673296379    19.992440176200

  Running in c2v symmetry.

  Rotational constants: A = ************  B =      0.56165  C =      0.56165 [cm^-1]
  Rotational constants: A = ************  B =  16837.89826  C =  16837.89826 [MHz]
  Nuclear repulsion =    0.000000000000000

  Charge       = 0
  Multiplicity = 1
  Electrons    = 2
  Nalpha       = 1
  Nbeta        = 1

  ==> Algorithm <==

  SCF Algorithm Type is DF.
  DIIS enabled.
  MOM disabled.
  Fractional occupation disabled.
  Guess Type is SAD.
  Energy threshold   = 1.00e-08
  Density threshold  = 1.00e-08
  Integral threshold = 1.00e-12

  ==> Primary Basis <==

  Basis Set: AUG-CC-PVQZ
    Blend: AUG-CC-PVQZ
    Number of shells: 34
    Number of basis functions: 126
    Number of Cartesian functions: 160
    Spherical Harmonics?: true
    Max angular momentum: 4

   => Loading Basis Set <=

    Name: (AUG-CC-PVQZ AUX)
    Role: JKFIT
    Keyword: DF_BASIS_SCF
    atoms 1 entry HE         line    34 file /opt/psi4/share/psi4/basis/def2-universal-jkfit.gbs 
    atoms 2 entry NE         line   458 file /opt/psi4/share/psi4/basis/aug-cc-pvqz-jkfit.gbs 

  ==> Integral Setup <==

  DFHelper Memory: AOs need 0.022 GiB; user supplied 1.397 GiB. 
  SCF_SUBTYPE=INCORE selected. In-core MEM_DF algorithm will be used.
  Using in-core AOs.

  ==> MemDFJK: Density-Fitted J/K Matrices <==

    J tasked:                   Yes
    K tasked:                   Yes
    wK tasked:                   No
    OpenMP threads:               1
    Memory [MiB]:              1430
    Algorithm:                 Core
    Schwarz Cutoff:           1E-12
    Mask sparsity (%):      11.2245
    Fitting Condition:        1E-10

   => Auxiliary Basis Set <=

  Basis Set: (AUG-CC-PVQZ AUX)
    Blend: AUG-CC-PVQZ-JKFIT + DEF2-UNIVERSAL-JKFIT
    Number of shells: 43
    Number of basis functions: 165
    Number of Cartesian functions: 223
    Spherical Harmonics?: true
    Max angular momentum: 5

  Minimum eigenvalue in the overlap matrix is 3.2366262602E-03.
  Reciprocal condition number of the overlap matrix is 9.4365410713E-04.
    Using symmetric orthogonalization.

  ==> Pre-Iterations <==

  SCF Guess: Superposition of Atomic Densities via on-the-fly atomic UHF (no occupation information).

   -------------------------
    Irrep   Nso     Nmo    
   -------------------------
     A1        50      50 
     A2        16      16 
     B1        30      30 
     B2        30      30 
   -------------------------
    Total     126     126
   -------------------------

  ==> Iterations <==

                           Total Energy        Delta E     RMS |[F,P]|

   @DF-RHF iter SAD:    -2.86154394352488   -2.86154e+00   0.00000e+00 
   @DF-RHF iter   1:    -2.86154491077227   -9.67247e-07   2.03956e-06 DIIS
   @DF-RHF iter   2:    -2.86154492099972   -1.02275e-08   2.37506e-07 DIIS
   @DF-RHF iter   3:    -2.86154492116162   -1.61901e-10   1.62961e-08 DIIS
   @DF-RHF iter   4:    -2.86154492116241   -7.95364e-13   9.67267e-10 DIIS
  Energy and wave function converged.


  ==> Post-Iterations <==

    Orbital Energies [Eh]
    ---------------------

    Doubly Occupied:                                                      

       1A1    -0.917934  

    Virtual:                                                              

       2A1     0.091289     3A1     0.152523     1B2     0.185228  
       1B1     0.185228     4A1     0.214348     2B2     0.361260  
       2B1     0.361260     5A1     0.444701     6A1     0.667940  
       7A1     0.744882     8A1     0.812343     3B1     0.813797  
       3B2     0.813797     4B2     0.870405     4B1     0.870405  
       9A1     0.878299     1A2     0.878299    10A1     0.971751  
       2A2     1.150888    11A1     1.150888     5B2     1.187021  
       5B1     1.187021    12A1     1.308335     6B2     1.490279  
       6B1     1.490279    13A1     1.625840    14A1     2.457873  
      15A1     2.753525     7B1     2.754059     7B2     2.754059  
       3A2     2.817528    16A1     2.817528     8B2     2.817528  
       8B1     2.817528     9B2     2.819672     9B1     2.819672  
      17A1     2.820364    18A1     2.982950    10B2     2.997302  
      10B1     2.997302    19A1     3.016150     4A2     3.016150  
      11B2     3.017256    11B1     3.017256    20A1     3.021347  
      21A1     3.083878     5A2     3.083878    12B2     3.124583  
      12B1     3.124583    22A1     3.313626    23A1     4.588393  
       6A2     4.588393    13B1     4.602539    13B2     4.602539  
      24A1     4.685159    14B2     5.140673    14B1     5.140673  
      25A1     5.232795    26A1     6.385367     7A2     6.385367  
      15B2     6.385368    15B1     6.385368     8A2     6.385373  
      27A1     6.385373    16B2     6.385801    16B1     6.385801  
      28A1     6.388693    29A1     7.399090    17B2     8.274561  
      17B1     8.274561     9A2     8.274579    30A1     8.274579  
      18B1     8.277316    18B2     8.277316    31A1     8.302028  
      19B1     8.743244    19B2     8.743244    32A1     8.770939  
      10A2     9.462311    33A1     9.462311    20B2     9.472208  
      20B1     9.472208    34A1     9.552891    21B1    12.577075  
      21B2    12.577075    35A1    12.577104    11A2    12.577104  
      22B1    12.579072    22B2    12.579072    36A1    12.590051  
      37A1    13.656387    12A2    16.645551    38A1    16.645551  
      23B2    16.652409    23B1    16.652409    39A1    16.697267  
      24B2    18.099430    24B1    18.099430    40A1    18.161681  
      41A1    18.907885    13A2    18.907885    25B1    18.907885  
      25B2    18.907885    14A2    18.907887    42A1    18.907887  
      26B2    18.908078    26B1    18.908078    43A1    18.909410  
      27B2    24.819964    27B1    24.819964    15A2    24.819976  
      44A1    24.819976    28B2    24.821235    28B1    24.821235  
      45A1    24.834031    16A2    29.202866    46A1    29.202866  
      29B2    29.209028    29B1    29.209028    47A1    29.260561  
      48A1    30.850545    30B1    34.251340    30B2    34.251340  
      49A1    34.276517    50A1   194.348717  

    Final Occupation by Irrep:
             A1    A2    B1    B2 
    DOCC [     1,    0,    0,    0 ]
    NA   [     1,    0,    0,    0 ]
    NB   [     1,    0,    0,    0 ]

  @DF-RHF Final Energy:    -2.86154492116241

   => Energetics <=

    Nuclear Repulsion Energy =              0.0000000000000000
    One-Electron Energy =                  -3.8872219907156333
    Two-Electron Energy =                   1.0256770695532202
    Total Energy =                         -2.8615449211624133

Computation Completed


Properties will be evaluated at   0.000000,   0.000000,   0.000000 [a0]

Properties computed using the SCF density matrix


 Multipole Moments:

 ------------------------------------------------------------------------------------
     Multipole            Electronic (a.u.)      Nuclear  (a.u.)        Total (a.u.)
 ------------------------------------------------------------------------------------

 L = 1.  Multiply by 2.5417464519 to convert [e a0] to [Debye]
 Dipole X            :          0.0000000            0.0000000            0.0000000
 Dipole Y            :          0.0000000            0.0000000            0.0000000
 Dipole Z            :          9.4470214           -9.4470102            0.0000113
 Magnitude           :                                                    0.0000113

 ------------------------------------------------------------------------------------

*** tstop() called on kichot at Mon Jun 15 06:35:45 2026
Module time:
	user time   =       0.42 seconds =       0.01 minutes
	system time =       0.00 seconds =       0.00 minutes
	total time  =          1 seconds =       0.02 minutes
Total time:
	user time   =       6.13 seconds =       0.10 minutes
	system time =       0.10 seconds =       0.00 minutes
	total time  =          7 seconds =       0.12 minutes

*** tstart() called on kichot
*** at Mon Jun 15 06:35:45 2026


  //>>>>>>>>>>>>>>>>>>>>>>>>>>>>>>>>>>>//
  //               DFMP2               //
  //<<<<<<<<<<<<<<<<<<<<<<<<<<<<<<<<<<<//

   => Loading Basis Set <=

    Name: (AUG-CC-PVQZ AUX)
    Role: RIFIT
    Keyword: DF_BASIS_MP2
    atoms 1 entry HE         line    72 file /opt/psi4/share/psi4/basis/aug-cc-pvqz-ri.gbs 
    atoms 2 entry NE         line   480 file /opt/psi4/share/psi4/basis/aug-cc-pvqz-ri.gbs 

	 --------------------------------------------------------
	                          DF-MP2                         
	      2nd-Order Density-Fitted Moller-Plesset Theory     
	              RMP2 Wavefunction,   1 Threads             
	                                                         
	        Rob Parrish, Justin Turney, Andy Simmonett,      
	           Ed Hohenstein, and C. David Sherrill          
	 --------------------------------------------------------

   => Auxiliary Basis Set <=

  Basis Set: (AUG-CC-PVQZ AUX)
    Blend: AUG-CC-PVQZ-RI
    Number of shells: 54
    Number of basis functions: 230
    Number of Cartesian functions: 312
    Spherical Harmonics?: true
    Max angular momentum: 5

	 --------------------------------------------------------
	                 NBF =   126, NAUX =   230
	 --------------------------------------------------------
	   CLASS    FOCC     OCC    AOCC    AVIR     VIR    FVIR
	   PAIRS       0       1       1     125     125       0
	 --------------------------------------------------------

	-----------------------------------------------------------
	 ==================> DF-MP2 Energies <==================== 
	-----------------------------------------------------------
	 Reference Energy          =      -2.8615449211624133 [Eh]
	 Singles Energy            =      -0.0000000000000000 [Eh]
	 Same-Spin Energy          =      -0.0000000000000000 [Eh]
	 Opposite-Spin Energy      =      -0.0357125002309651 [Eh]
	 Correlation Energy        =      -0.0357125002309651 [Eh]
	 Total Energy              =      -2.8972574213933786 [Eh]
	-----------------------------------------------------------
	 ================> DF-SCS-MP2 Energies <================== 
	-----------------------------------------------------------
	 SCS Same-Spin Scale       =       0.3333333333333333 [-]
	 SCS Opposite-Spin Scale   =       1.2000000000000000 [-]
	 SCS Same-Spin Energy      =      -0.0000000000000000 [Eh]
	 SCS Opposite-Spin Energy  =      -0.0428550002771581 [Eh]
	 SCS Correlation Energy    =      -0.0428550002771581 [Eh]
	 SCS Total Energy          =      -2.9043999214395715 [Eh]
	-----------------------------------------------------------


*** tstop() called on kichot at Mon Jun 15 06:35:45 2026
Module time:
	user time   =       0.12 seconds =       0.00 minutes
	system time =       0.00 seconds =       0.00 minutes
	total time  =          0 seconds =       0.00 minutes
Total time:
	user time   =       6.25 seconds =       0.10 minutes
	system time =       0.10 seconds =       0.00 minutes
	total time  =          7 seconds =       0.12 minutes

    Psi4 stopped on: Monday, 15 June 2026 06:35AM
    Psi4 wall time for execution: 0:00:00.57


    -----------------------------------------------------------------------
          Psi4: An Open-Source Ab Initio Electronic Structure Package
                               Psi4 1.11a1.dev42 

                         Git: Rev {master} 144882d 


    D. G. A. Smith, L. A. Burns, A. C. Simmonett, R. M. Parrish,
    M. C. Schieber, R. Galvelis, P. Kraus, H. Kruse, R. Di Remigio,
    A. Alenaizan, A. M. James, S. Lehtola, J. P. Misiewicz, M. Scheurer,
    R. A. Shaw, J. B. Schriber, Y. Xie, Z. L. Glick, D. A. Sirianni,
    J. S. O'Brien, J. M. Waldrop, A. Kumar, E. G. Hohenstein,
    B. P. Pritchard, B. R. Brooks, H. F. Schaefer III, A. Yu. Sokolov,
    K. Patkowski, A. E. DePrince III, U. Bozkaya, R. A. King,
    F. A. Evangelista, J. M. Turney, T. D. Crawford, C. D. Sherrill,
    J. Chem. Phys. 152(18) 184108 (2020). https://doi.org/10.1063/5.0006002

                            Additional Code Authors
    E. T. Seidl, C. L. Janssen, E. F. Valeev, M. L. Leininger,
    J. F. Gonthier, R. M. Richard, H. R. McAlexander, M. Saitow, X. Wang,
    P. Verma, M. H. Lechner, A. Jiang, S. Behnle, A. G. Heide,
    M. F. Herbst, D. L. Poole, T. Győri, E. C. Mitchell, J. P. Pederson,
    and A. M. Wallace

             Previous Authors, Complete List of Code Contributors,
                       and Citations for Specific Modules
    https://github.com/psi4/psi4/blob/master/codemeta.json
    https://github.com/psi4/psi4/graphs/contributors
    https://psicode.org/psi4manual/master/introduction.html#citing-psifour

    -----------------------------------------------------------------------


    Psi4 started on: Monday, 15 June 2026 06:35AM

    Process ID: 215698
    Host:       kichot
    PSIDATADIR: /opt/psi4/share/psi4
    Memory:     1.9 GiB
    Threads:    1
    Addons:     a̶d̶c̶c̶, a̶m̶b̶i̶t̶, b̶s̶e̶, c̶c̶t̶3̶, c̶f̶o̶u̶r̶, c̶h̶e̶m̶p̶s̶2̶, c̶p̶p̶e̶, d̶d̶x̶,
                d̶f̶t̶d̶3̶, d̶f̶t̶d̶4̶, d̶k̶h̶, e̶c̶p̶i̶n̶t̶, e̶i̶n̶s̶u̶m̶s̶, f̶o̶r̶t̶e̶,
                g̶a̶u̶x̶c̶, g̶c̶p̶, g̶d̶m̶a̶, g̶e̶o̶m̶e̶t̶r̶i̶c̶, g̶p̶u̶_̶d̶f̶c̶c̶,
                i̶n̶t̶e̶g̶r̶a̶t̶o̶r̶x̶x̶, i̶p̶i̶, l̶i̶b̶e̶f̶p̶, m̶d̶i̶, m̶p̶2̶d̶, m̶r̶c̶c̶,
                o̶o̶o̶, o̶p̶e̶n̶f̶e̶r̶m̶i̶o̶n̶p̶s̶i̶4̶, p̶c̶m̶s̶o̶l̶v̶e̶r̶,
                p̶s̶i̶4̶f̶o̶c̶k̶c̶i̶, p̶s̶i̶x̶a̶s̶, p̶y̶e̶i̶n̶s̶u̶m̶s̶, r̶e̶s̶p̶, s̶i̶m̶i̶n̶t̶,
                s̶n̶s̶m̶p̶2̶, v̶2̶r̶d̶m̶_̶c̶a̶s̶s̶c̶f̶

  ==> Input QCSchema <==

--------------------------------------------------------------------------
{'driver': 'energy',
 'extras': {'psiapi': True, 'wfn_qcvars_only': True},
 'id': None,
 'keywords': {'function_kwargs': {}},
 'model': {'basis': 'aug-cc-pvqz', 'method': 'mp2'},
 'molecule': {'atom_labels': ['', ''],
              'atomic_numbers': [2, 10],
              'extras': {},
              'fix_com': True,
              'fix_orientation': True,
              'fragment_charges': [0.0, 0.0],
              'fragment_multiplicities': [1, 1],
              'fragments': [[0], [1]],
              'geometry': [0.0, 0.0, -4.7235050799945, 0.0, 0.0, 0.9456732963789],
              'mass_numbers': [4, 20],
              'masses': [4.00260325413, 19.9924401762],
              'molecular_charge': 0.0,
              'molecular_multiplicity': 1,
              'name': 'He-Ne ([0, 1],[])',
              'provenance': {'creator': 'QCElemental',
                             'routine': 'qcelemental.molparse.from_schema',
                             'version': '0.29.0'},
              'real': [True, True],
              'schema_name': 'qcschema_molecule',
              'schema_version': 2,
              'symbols': ['He', 'Ne'],
              'validated': True},
 'protocols': {'stdout': True},
 'provenance': {'creator': 'QCElemental', 'routine': 'qcelemental.models.results', 'version': '0.29.0'},
 'schema_name': 'qcschema_input',
 'schema_version': 1}
--------------------------------------------------------------------------

Scratch directory: /scratch/lukasz/psi4/
    SCF Algorithm Type (re)set to DF.
   => Libint2 <=

    Primary   basis highest AM E, G, H:  5, 4, 3
    Auxiliary basis highest AM E, G, H:  6, 5, 4
    Onebody   basis highest AM E, G, H:  6, 5, 4
    Solid Harmonics ordering:            Gaussian

*** tstart() called on kichot
*** at Mon Jun 15 06:35:45 2026

   => Loading Basis Set <=

    Name: AUG-CC-PVQZ
    Role: ORBITAL
    Keyword: BASIS
    atoms 1 entry HE         line    72 file /opt/psi4/share/psi4/basis/aug-cc-pvqz.gbs 
    atoms 2 entry NE         line   543 file /opt/psi4/share/psi4/basis/aug-cc-pvqz.gbs 


         ---------------------------------------------------------
                                   SCF
               by Justin Turney, Rob Parrish, Andy Simmonett
                          and Daniel G. A. Smith
                              RHF Reference
                        1 Threads,   1907 MiB Core
         ---------------------------------------------------------

  ==> Geometry <==

    Molecular point group: c2v
    Full point group: C_inf_v

    Geometry (in Bohr), charge = 0, multiplicity = 1:

       Center              X                  Y                   Z               Mass       
    ------------   -----------------  -----------------  -----------------  -----------------
         HE           0.000000000000     0.000000000000    -4.723505079995     4.002603254130
         NE           0.000000000000     0.000000000000     0.945673296379    19.992440176200

  Running in c2v symmetry.

  Rotational constants: A = ************  B =      0.56165  C =      0.56165 [cm^-1]
  Rotational constants: A = ************  B =  16837.89826  C =  16837.89826 [MHz]
  Nuclear repulsion =    3.527848071133385

  Charge       = 0
  Multiplicity = 1
  Electrons    = 12
  Nalpha       = 6
  Nbeta        = 6

  ==> Algorithm <==

  SCF Algorithm Type is DF.
  DIIS enabled.
  MOM disabled.
  Fractional occupation disabled.
  Guess Type is SAD.
  Energy threshold   = 1.00e-08
  Density threshold  = 1.00e-08
  Integral threshold = 1.00e-12

  ==> Primary Basis <==

  Basis Set: AUG-CC-PVQZ
    Blend: AUG-CC-PVQZ
    Number of shells: 34
    Number of basis functions: 126
    Number of Cartesian functions: 160
    Spherical Harmonics?: true
    Max angular momentum: 4

   => Loading Basis Set <=

    Name: (AUG-CC-PVQZ AUX)
    Role: JKFIT
    Keyword: DF_BASIS_SCF
    atoms 1 entry HE         line    34 file /opt/psi4/share/psi4/basis/def2-universal-jkfit.gbs 
    atoms 2 entry NE         line   458 file /opt/psi4/share/psi4/basis/aug-cc-pvqz-jkfit.gbs 

  ==> Integral Setup <==

  DFHelper Memory: AOs need 0.022 GiB; user supplied 1.397 GiB. 
  SCF_SUBTYPE=INCORE selected. In-core MEM_DF algorithm will be used.
  Using in-core AOs.

  ==> MemDFJK: Density-Fitted J/K Matrices <==

    J tasked:                   Yes
    K tasked:                   Yes
    wK tasked:                   No
    OpenMP threads:               1
    Memory [MiB]:              1430
    Algorithm:                 Core
    Schwarz Cutoff:           1E-12
    Mask sparsity (%):      11.2245
    Fitting Condition:        1E-10

   => Auxiliary Basis Set <=

  Basis Set: (AUG-CC-PVQZ AUX)
    Blend: AUG-CC-PVQZ-JKFIT + DEF2-UNIVERSAL-JKFIT
    Number of shells: 43
    Number of basis functions: 165
    Number of Cartesian functions: 223
    Spherical Harmonics?: true
    Max angular momentum: 5

  Minimum eigenvalue in the overlap matrix is 3.2366262602E-03.
  Reciprocal condition number of the overlap matrix is 9.4365410713E-04.
    Using symmetric orthogonalization.

  ==> Pre-Iterations <==

  SCF Guess: Superposition of Atomic Densities via on-the-fly atomic UHF (no occupation information).

   -------------------------
    Irrep   Nso     Nmo    
   -------------------------
     A1        50      50 
     A2        16      16 
     B1        30      30 
     B2        30      30 
   -------------------------
    Total     126     126
   -------------------------

  ==> Iterations <==

                           Total Energy        Delta E     RMS |[F,P]|

   @DF-RHF iter SAD:  -131.40538138355436   -1.31405e+02   0.00000e+00 
   @DF-RHF iter   1:  -131.40524558793416    1.35796e-04   2.51068e-05 DIIS
   @DF-RHF iter   2:  -131.40524604155294   -4.53619e-07   1.25364e-05 DIIS
   @DF-RHF iter   3:  -131.40524616665644   -1.25103e-07   5.40262e-07 DIIS
   @DF-RHF iter   4:  -131.40524616760709   -9.50649e-10   9.80383e-08 DIIS
   @DF-RHF iter   5:  -131.40524616764733   -4.02451e-11   1.68294e-08 DIIS
   @DF-RHF iter   6:  -131.40524616764785   -5.11591e-13   1.47251e-09 DIIS
  Energy and wave function converged.


  ==> Post-Iterations <==

    Orbital Energies [Eh]
    ---------------------

    Doubly Occupied:                                                      

       1A1   -32.774113     2A1    -1.931155     3A1    -0.918032  
       1B2    -0.850588     1B1    -0.850588     4A1    -0.850497  

    Virtual:                                                              

       5A1     0.100619     2B2     0.203636     2B1     0.203636  
       6A1     0.205859     7A1     0.247971     3B1     0.362185  
       3B2     0.362185     8A1     0.464243     9A1     0.664505  
       4B2     0.817625     4B1     0.817625     1A2     0.821444  
      10A1     0.821444    11A1     0.894366    12A1     1.047825  
       5B2     1.051803     5B1     1.051803     2A2     1.150724  
      13A1     1.150724     6B2     1.181020     6B1     1.181020  
      14A1     1.301510    15A1     1.446578     7B2     1.489353  
       7B1     1.489353    16A1     1.635415     3A2     2.568652  
      17A1     2.568652     8B2     2.578172     8B1     2.578172  
      18A1     2.635168     9B2     2.696285     9B1     2.696285  
       4A2     2.696299    19A1     2.696299    10B2     2.699236  
      10B1     2.699236    20A1     2.721410    21A1     2.987312  
      11B1     3.017273    11B2     3.017273    22A1     3.017570  
       5A2     3.017570    12B2     3.029257    12B1     3.029257  
      23A1     3.115791    13B1     4.126301    13B2     4.126301  
      24A1     4.150126    25A1     4.588415     6A2     4.588415  
      14B1     4.601210    14B2     4.601210    26A1     4.692777  
      15B2     5.140382    15B1     5.140382    27A1     5.231696  
      28A1     6.141453     7A2     6.141453    16B2     6.141455  
      16B1     6.141455     8A2     6.141459    29A1     6.141459  
      17B2     6.141897    17B1     6.141897    30A1     6.144503  
      31A1     6.310606     9A2     7.245305    32A1     7.245305  
      18B2     7.256329    18B1     7.256329    33A1     7.327279  
      19B1     7.470931    19B2     7.470931    10A2     7.470953  
      34A1     7.470953    20B2     7.473955    20B1     7.473955  
      35A1     7.517420    21B1    12.577154    21B2    12.577154  
      36A1    12.577177    11A2    12.577177    22B1    12.579006  
      22B2    12.579006    37A1    12.588509    38A1    13.654783  
      23B2    15.958044    23B1    15.958044    39A1    15.979424  
      12A2    16.645643    40A1    16.645643    24B2    16.652242  
      24B1    16.652242    41A1    16.700840    42A1    17.283715  
      13A2    17.283715    25B1    17.283723    25B2    17.283723  
      14A2    17.283730    43A1    17.283730    26B2    17.283907  
      26B1    17.283907    44A1    17.285335    27B2    18.099472  
      27B1    18.099472    45A1    18.161739    28B2    20.843241  
      28B1    20.843241    15A2    20.843263    46A1    20.843263  
      29B2    20.844600    29B1    20.844600    47A1    20.856835  
      48A1    21.324698    16A2    21.324698    30B2    21.331575  
      30B1    21.331575    49A1    21.389924    50A1    67.331811  

    Final Occupation by Irrep:
             A1    A2    B1    B2 
    DOCC [     4,    0,    1,    1 ]
    NA   [     4,    0,    1,    1 ]
    NB   [     4,    0,    1,    1 ]

  @DF-RHF Final Energy:  -131.40524616764785

   => Energetics <=

    Nuclear Repulsion Energy =              3.5278480711333855
    One-Electron Energy =                -193.5162436315244463
    Two-Electron Energy =                  58.5831493927432234
    Total Energy =                       -131.4052461676478458

Computation Completed


Properties will be evaluated at   0.000000,   0.000000,   0.000000 [a0]

Properties computed using the SCF density matrix


 Multipole Moments:

 ------------------------------------------------------------------------------------
     Multipole            Electronic (a.u.)      Nuclear  (a.u.)        Total (a.u.)
 ------------------------------------------------------------------------------------

 L = 1.  Multiply by 2.5417464519 to convert [e a0] to [Debye]
 Dipole X            :          0.0000000            0.0000000            0.0000000
 Dipole Y            :          0.0000000            0.0000000            0.0000000
 Dipole Z            :         -0.0095330            0.0097228            0.0001898
 Magnitude           :                                                    0.0001898

 ------------------------------------------------------------------------------------

*** tstop() called on kichot at Mon Jun 15 06:35:45 2026
Module time:
	user time   =       0.68 seconds =       0.01 minutes
	system time =       0.01 seconds =       0.00 minutes
	total time  =          0 seconds =       0.00 minutes
Total time:
	user time   =       6.97 seconds =       0.12 minutes
	system time =       0.11 seconds =       0.00 minutes
	total time  =          7 seconds =       0.12 minutes

*** tstart() called on kichot
*** at Mon Jun 15 06:35:45 2026


  //>>>>>>>>>>>>>>>>>>>>>>>>>>>>>>>>>>>//
  //               DFMP2               //
  //<<<<<<<<<<<<<<<<<<<<<<<<<<<<<<<<<<<//

   => Loading Basis Set <=

    Name: (AUG-CC-PVQZ AUX)
    Role: RIFIT
    Keyword: DF_BASIS_MP2
    atoms 1 entry HE         line    72 file /opt/psi4/share/psi4/basis/aug-cc-pvqz-ri.gbs 
    atoms 2 entry NE         line   480 file /opt/psi4/share/psi4/basis/aug-cc-pvqz-ri.gbs 

	 --------------------------------------------------------
	                          DF-MP2                         
	      2nd-Order Density-Fitted Moller-Plesset Theory     
	              RMP2 Wavefunction,   1 Threads             
	                                                         
	        Rob Parrish, Justin Turney, Andy Simmonett,      
	           Ed Hohenstein, and C. David Sherrill          
	 --------------------------------------------------------

   => Auxiliary Basis Set <=

  Basis Set: (AUG-CC-PVQZ AUX)
    Blend: AUG-CC-PVQZ-RI
    Number of shells: 54
    Number of basis functions: 230
    Number of Cartesian functions: 312
    Spherical Harmonics?: true
    Max angular momentum: 5

	 --------------------------------------------------------
	                 NBF =   126, NAUX =   230
	 --------------------------------------------------------
	   CLASS    FOCC     OCC    AOCC    AVIR     VIR    FVIR
	   PAIRS       0       6       6     120     120       0
	 --------------------------------------------------------

	-----------------------------------------------------------
	 ==================> DF-MP2 Energies <==================== 
	-----------------------------------------------------------
	 Reference Energy          =    -131.4052461676478458 [Eh]
	 Singles Energy            =      -0.0000000000000000 [Eh]
	 Same-Spin Energy          =      -0.0811995673992923 [Eh]
	 Opposite-Spin Energy      =      -0.2846000582447110 [Eh]
	 Correlation Energy        =      -0.3657996256440032 [Eh]
	 Total Energy              =    -131.7710457932918473 [Eh]
	-----------------------------------------------------------
	 ================> DF-SCS-MP2 Energies <================== 
	-----------------------------------------------------------
	 SCS Same-Spin Scale       =       0.3333333333333333 [-]
	 SCS Opposite-Spin Scale   =       1.2000000000000000 [-]
	 SCS Same-Spin Energy      =      -0.0270665224664308 [Eh]
	 SCS Opposite-Spin Energy  =      -0.3415200698936531 [Eh]
	 SCS Correlation Energy    =      -0.3685865923600839 [Eh]
	 SCS Total Energy          =    -131.7738327600079344 [Eh]
	-----------------------------------------------------------


*** tstop() called on kichot at Mon Jun 15 06:35:46 2026
Module time:
	user time   =       0.20 seconds =       0.00 minutes
	system time =       0.00 seconds =       0.00 minutes
	total time  =          1 seconds =       0.02 minutes
Total time:
	user time   =       7.17 seconds =       0.12 minutes
	system time =       0.11 seconds =       0.00 minutes
	total time  =          8 seconds =       0.13 minutes

    Psi4 stopped on: Monday, 15 June 2026 06:35AM
    Psi4 wall time for execution: 0:00:00.91


  //>>>>>>>>>>>>>>>>>>>>>>>>>>>>>>>>>>>//
  //          ManyBody Results         //
  //<<<<<<<<<<<<<<<<<<<<<<<<<<<<<<<<<<<//


   ==> N-Body: Counterpoise Corrected (CP) energies <==

              MC n-Body  Total Energy            Interaction Energy                          N-body Contribution to Interaction Energy
                         [Eh]                    [Eh]                  [kcal/mol]            [Eh]                  [kcal/mol]
              §A  1        N/A                   0.000000000000        0.000000000000        0.000000000000        0.000000000000
     FULL/RTN §A  2        N/A                  -0.000029461347       -0.018487274280       -0.000029461347       -0.018487274280

   MC Legend: §A: "(auto)"


Scratch directory: /scratch/lukasz/psi4/

  //>>>>>>>>>>>>>>>>>>>>>>>>>>>>>>>>>>>//
  //   ManyBody Setup: N-Body Levels 2 //
  //<<<<<<<<<<<<<<<<<<<<<<<<<<<<<<<<<<<//

    Model chemistry "(auto)" (§A):          3
        Number of 1-body computations:      2 (nocp: 0, cp: 2, vmfc_compute: 0)
        Number of 2-body computations:      1 (nocp: 0, cp: 1, vmfc_compute: 0)

    -----------------------------------------------------------------------
          Psi4: An Open-Source Ab Initio Electronic Structure Package
                               Psi4 1.11a1.dev42 

                         Git: Rev {master} 144882d 


    D. G. A. Smith, L. A. Burns, A. C. Simmonett, R. M. Parrish,
    M. C. Schieber, R. Galvelis, P. Kraus, H. Kruse, R. Di Remigio,
    A. Alenaizan, A. M. James, S. Lehtola, J. P. Misiewicz, M. Scheurer,
    R. A. Shaw, J. B. Schriber, Y. Xie, Z. L. Glick, D. A. Sirianni,
    J. S. O'Brien, J. M. Waldrop, A. Kumar, E. G. Hohenstein,
    B. P. Pritchard, B. R. Brooks, H. F. Schaefer III, A. Yu. Sokolov,
    K. Patkowski, A. E. DePrince III, U. Bozkaya, R. A. King,
    F. A. Evangelista, J. M. Turney, T. D. Crawford, C. D. Sherrill,
    J. Chem. Phys. 152(18) 184108 (2020). https://doi.org/10.1063/5.0006002

                            Additional Code Authors
    E. T. Seidl, C. L. Janssen, E. F. Valeev, M. L. Leininger,
    J. F. Gonthier, R. M. Richard, H. R. McAlexander, M. Saitow, X. Wang,
    P. Verma, M. H. Lechner, A. Jiang, S. Behnle, A. G. Heide,
    M. F. Herbst, D. L. Poole, T. Győri, E. C. Mitchell, J. P. Pederson,
    and A. M. Wallace

             Previous Authors, Complete List of Code Contributors,
                       and Citations for Specific Modules
    https://github.com/psi4/psi4/blob/master/codemeta.json
    https://github.com/psi4/psi4/graphs/contributors
    https://psicode.org/psi4manual/master/introduction.html#citing-psifour

    -----------------------------------------------------------------------


    Psi4 started on: Monday, 15 June 2026 06:35AM

    Process ID: 215698
    Host:       kichot
    PSIDATADIR: /opt/psi4/share/psi4
    Memory:     1.9 GiB
    Threads:    1
    Addons:     a̶d̶c̶c̶, a̶m̶b̶i̶t̶, b̶s̶e̶, c̶c̶t̶3̶, c̶f̶o̶u̶r̶, c̶h̶e̶m̶p̶s̶2̶, c̶p̶p̶e̶, d̶d̶x̶,
                d̶f̶t̶d̶3̶, d̶f̶t̶d̶4̶, d̶k̶h̶, e̶c̶p̶i̶n̶t̶, e̶i̶n̶s̶u̶m̶s̶, f̶o̶r̶t̶e̶,
                g̶a̶u̶x̶c̶, g̶c̶p̶, g̶d̶m̶a̶, g̶e̶o̶m̶e̶t̶r̶i̶c̶, g̶p̶u̶_̶d̶f̶c̶c̶,
                i̶n̶t̶e̶g̶r̶a̶t̶o̶r̶x̶x̶, i̶p̶i̶, l̶i̶b̶e̶f̶p̶, m̶d̶i̶, m̶p̶2̶d̶, m̶r̶c̶c̶,
                o̶o̶o̶, o̶p̶e̶n̶f̶e̶r̶m̶i̶o̶n̶p̶s̶i̶4̶, p̶c̶m̶s̶o̶l̶v̶e̶r̶,
                p̶s̶i̶4̶f̶o̶c̶k̶c̶i̶, p̶s̶i̶x̶a̶s̶, p̶y̶e̶i̶n̶s̶u̶m̶s̶, r̶e̶s̶p̶, s̶i̶m̶i̶n̶t̶,
                s̶n̶s̶m̶p̶2̶, v̶2̶r̶d̶m̶_̶c̶a̶s̶s̶c̶f̶

  ==> Input QCSchema <==

--------------------------------------------------------------------------
{'driver': 'energy',
 'extras': {'psiapi': True, 'wfn_qcvars_only': True},
 'id': None,
 'keywords': {'function_kwargs': {}},
 'model': {'basis': 'aug-cc-pvdz', 'method': 'scf'},
 'molecule': {'atom_labels': ['', ''],
              'atomic_numbers': [2, 3],
              'extras': {},
              'fix_com': True,
              'fix_orientation': True,
              'fragment_charges': [0.0, 1.0],
              'fragment_multiplicities': [1, 1],
              'fragments': [[0], [1]],
              'geometry': [0.0, 0.0, -6.617968087453, 0.0, 0.0, 3.7755256025651],
              'mass_numbers': [4, 7],
              'masses': [4.00260325413, 7.0160034366],
              'molecular_charge': 1.0,
              'molecular_multiplicity': 1,
              'name': 'He-Li+ ([1],[0])',
              'provenance': {'creator': 'QCElemental',
                             'routine': 'qcelemental.molparse.from_schema',
                             'version': '0.29.0'},
              'real': [False, True],
              'schema_name': 'qcschema_molecule',
              'schema_version': 2,
              'symbols': ['He', 'Li'],
              'validated': True},
 'protocols': {'stdout': True},
 'provenance': {'creator': 'QCElemental', 'routine': 'qcelemental.models.results', 'version': '0.29.0'},
 'schema_name': 'qcschema_input',
 'schema_version': 1}
--------------------------------------------------------------------------

Scratch directory: /scratch/lukasz/psi4/
   => Libint2 <=

    Primary   basis highest AM E, G, H:  5, 4, 3
    Auxiliary basis highest AM E, G, H:  6, 5, 4
    Onebody   basis highest AM E, G, H:  6, 5, 4
    Solid Harmonics ordering:            Gaussian

*** tstart() called on kichot
*** at Mon Jun 15 06:35:46 2026

   => Loading Basis Set <=

    Name: AUG-CC-PVDZ
    Role: ORBITAL
    Keyword: BASIS
    atoms 1 entry HE         line    54 file /opt/psi4/share/psi4/basis/aug-cc-pvdz.gbs 
    atoms 2 entry LI         line    68 file /opt/psi4/share/psi4/basis/aug-cc-pvdz.gbs 


         ---------------------------------------------------------
                                   SCF
               by Justin Turney, Rob Parrish, Andy Simmonett
                          and Daniel G. A. Smith
                              RHF Reference
                        1 Threads,   1907 MiB Core
         ---------------------------------------------------------

  ==> Geometry <==

    Molecular point group: c2v
    Full point group: C_inf_v

    Geometry (in Bohr), charge = 1, multiplicity = 1:

       Center              X                  Y                   Z               Mass       
    ------------   -----------------  -----------------  -----------------  -----------------
      Gh(HE)          0.000000000000     0.000000000000    -6.617968087453     4.002603254130
         LI           0.000000000000     0.000000000000     3.775525602565     7.016003436600

  Running in c2v symmetry.

  Rotational constants: A = ************  B =      0.21866  C =      0.21866 [cm^-1]
  Rotational constants: A = ************  B =   6555.20329  C =   6555.20329 [MHz]
  Nuclear repulsion =    0.000000000000000

  Charge       = 1
  Multiplicity = 1
  Electrons    = 2
  Nalpha       = 1
  Nbeta        = 1

  ==> Algorithm <==

  SCF Algorithm Type is DF.
  DIIS enabled.
  MOM disabled.
  Fractional occupation disabled.
  Guess Type is SAD.
  Energy threshold   = 1.00e-06
  Density threshold  = 1.00e-06
  Integral threshold = 1.00e-12

  ==> Primary Basis <==

  Basis Set: AUG-CC-PVDZ
    Blend: AUG-CC-PVDZ
    Number of shells: 14
    Number of basis functions: 32
    Number of Cartesian functions: 34
    Spherical Harmonics?: true
    Max angular momentum: 2

   => Loading Basis Set <=

    Name: (AUG-CC-PVDZ AUX)
    Role: JKFIT
    Keyword: DF_BASIS_SCF
    atoms 1 entry HE         line    34 file /opt/psi4/share/psi4/basis/def2-universal-jkfit.gbs 
    atoms 2 entry LI         line    54 file /opt/psi4/share/psi4/basis/def2-universal-jkfit.gbs 

  ==> Integral Setup <==

  DFHelper Memory: AOs need 0.001 GiB; user supplied 1.397 GiB. 
  SCF_SUBTYPE=INCORE selected. In-core MEM_DF algorithm will be used.
  Using in-core AOs.

  ==> MemDFJK: Density-Fitted J/K Matrices <==

    J tasked:                   Yes
    K tasked:                   Yes
    wK tasked:                   No
    OpenMP threads:               1
    Memory [MiB]:              1430
    Algorithm:                 Core
    Schwarz Cutoff:           1E-12
    Mask sparsity (%):       0.0000
    Fitting Condition:        1E-10

   => Auxiliary Basis Set <=

  Basis Set: (AUG-CC-PVDZ AUX)
    Blend: DEF2-UNIVERSAL-JKFIT
    Number of shells: 26
    Number of basis functions: 74
    Number of Cartesian functions: 85
    Spherical Harmonics?: true
    Max angular momentum: 3

  Minimum eigenvalue in the overlap matrix is 1.9608241079E-02.
  Reciprocal condition number of the overlap matrix is 7.1847730689E-03.
    Using symmetric orthogonalization.

  ==> Pre-Iterations <==

  SCF Guess: Superposition of Atomic Densities via on-the-fly atomic UHF (no occupation information).

   -------------------------
    Irrep   Nso     Nmo    
   -------------------------
     A1        16      16 
     A2         2       2 
     B1         7       7 
     B2         7       7 
   -------------------------
    Total      32      32
   -------------------------

  ==> Iterations <==

                           Total Energy        Delta E     RMS |[F,P]|

   @DF-RHF iter SAD:    -7.29386098383240   -7.29386e+00   0.00000e+00 
   @DF-RHF iter   1:    -7.23612186341892    5.77391e-02   8.11163e-05 DIIS
   @DF-RHF iter   2:    -7.23612285959460   -9.96176e-07   1.03811e-05 DIIS
   @DF-RHF iter   3:    -7.23612287621797   -1.66234e-08   1.97247e-08 DIIS
  Energy and wave function converged.


  ==> Post-Iterations <==

    Orbital Energies [Eh]
    ---------------------

    Doubly Occupied:                                                      

       1A1    -2.792744  

    Virtual:                                                              

       2A1    -0.196300     3A1    -0.128472     1B2    -0.128470  
       1B1    -0.128470     4A1    -0.073328     5A1    -0.055705  
       2B1    -0.055656     2B2    -0.055656     6A1    -0.006767  
       3B1     0.000008     3B2     0.000008     7A1     0.003072  
       4B2     0.013511     4B1     0.013511     8A1     0.013537  
       1A2     0.013537     9A1     0.046269    10A1     0.052104  
       5B2     0.308889     5B1     0.308889    11A1     0.309128  
       2A2     0.309128    12A1     0.311794     6B1     0.508277  
       6B2     0.508277    13A1     0.521139    14A1     0.581256  
       7B2     3.592867     7B1     3.592867    15A1     3.601098  
      16A1     4.466535  

    Final Occupation by Irrep:
             A1    A2    B1    B2 
    DOCC [     1,    0,    0,    0 ]
    NA   [     1,    0,    0,    0 ]
    NB   [     1,    0,    0,    0 ]

  @DF-RHF Final Energy:    -7.23612287621797

   => Energetics <=

    Nuclear Repulsion Energy =              0.0000000000000000
    One-Electron Energy =                  -8.8867579157354903
    Two-Electron Energy =                   1.6506350395175249
    Total Energy =                         -7.2361228762179657

Computation Completed


Properties will be evaluated at   0.000000,   0.000000,   0.000000 [a0]

Properties computed using the SCF density matrix


 Multipole Moments:

 ------------------------------------------------------------------------------------
     Multipole            Electronic (a.u.)      Nuclear  (a.u.)        Total (a.u.)
 ------------------------------------------------------------------------------------

 L = 1.  Multiply by 2.5417464519 to convert [e a0] to [Debye]
 Dipole X            :          0.0000000            0.0000000            0.0000000
 Dipole Y            :          0.0000000            0.0000000            0.0000000
 Dipole Z            :         -7.5510452           11.3265768            3.7755317
 Magnitude           :                                                    3.7755317

 ------------------------------------------------------------------------------------

*** tstop() called on kichot at Mon Jun 15 06:35:46 2026
Module time:
	user time   =       0.16 seconds =       0.00 minutes
	system time =       0.00 seconds =       0.00 minutes
	total time  =          0 seconds =       0.00 minutes
Total time:
	user time   =       7.44 seconds =       0.12 minutes
	system time =       0.11 seconds =       0.00 minutes
	total time  =          8 seconds =       0.13 minutes

    Psi4 stopped on: Monday, 15 June 2026 06:35AM
    Psi4 wall time for execution: 0:00:00.19


    -----------------------------------------------------------------------
          Psi4: An Open-Source Ab Initio Electronic Structure Package
                               Psi4 1.11a1.dev42 

                         Git: Rev {master} 144882d 


    D. G. A. Smith, L. A. Burns, A. C. Simmonett, R. M. Parrish,
    M. C. Schieber, R. Galvelis, P. Kraus, H. Kruse, R. Di Remigio,
    A. Alenaizan, A. M. James, S. Lehtola, J. P. Misiewicz, M. Scheurer,
    R. A. Shaw, J. B. Schriber, Y. Xie, Z. L. Glick, D. A. Sirianni,
    J. S. O'Brien, J. M. Waldrop, A. Kumar, E. G. Hohenstein,
    B. P. Pritchard, B. R. Brooks, H. F. Schaefer III, A. Yu. Sokolov,
    K. Patkowski, A. E. DePrince III, U. Bozkaya, R. A. King,
    F. A. Evangelista, J. M. Turney, T. D. Crawford, C. D. Sherrill,
    J. Chem. Phys. 152(18) 184108 (2020). https://doi.org/10.1063/5.0006002

                            Additional Code Authors
    E. T. Seidl, C. L. Janssen, E. F. Valeev, M. L. Leininger,
    J. F. Gonthier, R. M. Richard, H. R. McAlexander, M. Saitow, X. Wang,
    P. Verma, M. H. Lechner, A. Jiang, S. Behnle, A. G. Heide,
    M. F. Herbst, D. L. Poole, T. Győri, E. C. Mitchell, J. P. Pederson,
    and A. M. Wallace

             Previous Authors, Complete List of Code Contributors,
                       and Citations for Specific Modules
    https://github.com/psi4/psi4/blob/master/codemeta.json
    https://github.com/psi4/psi4/graphs/contributors
    https://psicode.org/psi4manual/master/introduction.html#citing-psifour

    -----------------------------------------------------------------------


    Psi4 started on: Monday, 15 June 2026 06:35AM

    Process ID: 215698
    Host:       kichot
    PSIDATADIR: /opt/psi4/share/psi4
    Memory:     1.9 GiB
    Threads:    1
    Addons:     a̶d̶c̶c̶, a̶m̶b̶i̶t̶, b̶s̶e̶, c̶c̶t̶3̶, c̶f̶o̶u̶r̶, c̶h̶e̶m̶p̶s̶2̶, c̶p̶p̶e̶, d̶d̶x̶,
                d̶f̶t̶d̶3̶, d̶f̶t̶d̶4̶, d̶k̶h̶, e̶c̶p̶i̶n̶t̶, e̶i̶n̶s̶u̶m̶s̶, f̶o̶r̶t̶e̶,
                g̶a̶u̶x̶c̶, g̶c̶p̶, g̶d̶m̶a̶, g̶e̶o̶m̶e̶t̶r̶i̶c̶, g̶p̶u̶_̶d̶f̶c̶c̶,
                i̶n̶t̶e̶g̶r̶a̶t̶o̶r̶x̶x̶, i̶p̶i̶, l̶i̶b̶e̶f̶p̶, m̶d̶i̶, m̶p̶2̶d̶, m̶r̶c̶c̶,
                o̶o̶o̶, o̶p̶e̶n̶f̶e̶r̶m̶i̶o̶n̶p̶s̶i̶4̶, p̶c̶m̶s̶o̶l̶v̶e̶r̶,
                p̶s̶i̶4̶f̶o̶c̶k̶c̶i̶, p̶s̶i̶x̶a̶s̶, p̶y̶e̶i̶n̶s̶u̶m̶s̶, r̶e̶s̶p̶, s̶i̶m̶i̶n̶t̶,
                s̶n̶s̶m̶p̶2̶, v̶2̶r̶d̶m̶_̶c̶a̶s̶s̶c̶f̶

  ==> Input QCSchema <==

--------------------------------------------------------------------------
{'driver': 'energy',
 'extras': {'psiapi': True, 'wfn_qcvars_only': True},
 'id': None,
 'keywords': {'function_kwargs': {}},
 'model': {'basis': 'aug-cc-pvdz', 'method': 'scf'},
 'molecule': {'atom_labels': ['', ''],
              'atomic_numbers': [2, 3],
              'extras': {},
              'fix_com': True,
              'fix_orientation': True,
              'fragment_charges': [0.0, 0.0],
              'fragment_multiplicities': [1, 1],
              'fragments': [[0], [1]],
              'geometry': [0.0, 0.0, -6.617968087453, 0.0, 0.0, 3.7755256025651],
              'mass_numbers': [4, 7],
              'masses': [4.00260325413, 7.0160034366],
              'molecular_charge': 0.0,
              'molecular_multiplicity': 1,
              'name': 'He-Li+ ([0],[1])',
              'provenance': {'creator': 'QCElemental',
                             'routine': 'qcelemental.molparse.from_schema',
                             'version': '0.29.0'},
              'real': [True, False],
              'schema_name': 'qcschema_molecule',
              'schema_version': 2,
              'symbols': ['He', 'Li'],
              'validated': True},
 'protocols': {'stdout': True},
 'provenance': {'creator': 'QCElemental', 'routine': 'qcelemental.models.results', 'version': '0.29.0'},
 'schema_name': 'qcschema_input',
 'schema_version': 1}
--------------------------------------------------------------------------

Scratch directory: /scratch/lukasz/psi4/
   => Libint2 <=

    Primary   basis highest AM E, G, H:  5, 4, 3
    Auxiliary basis highest AM E, G, H:  6, 5, 4
    Onebody   basis highest AM E, G, H:  6, 5, 4
    Solid Harmonics ordering:            Gaussian

*** tstart() called on kichot
*** at Mon Jun 15 06:35:46 2026

   => Loading Basis Set <=

    Name: AUG-CC-PVDZ
    Role: ORBITAL
    Keyword: BASIS
    atoms 1 entry HE         line    54 file /opt/psi4/share/psi4/basis/aug-cc-pvdz.gbs 
    atoms 2 entry LI         line    68 file /opt/psi4/share/psi4/basis/aug-cc-pvdz.gbs 


         ---------------------------------------------------------
                                   SCF
               by Justin Turney, Rob Parrish, Andy Simmonett
                          and Daniel G. A. Smith
                              RHF Reference
                        1 Threads,   1907 MiB Core
         ---------------------------------------------------------

  ==> Geometry <==

    Molecular point group: c2v
    Full point group: C_inf_v

    Geometry (in Bohr), charge = 0, multiplicity = 1:

       Center              X                  Y                   Z               Mass       
    ------------   -----------------  -----------------  -----------------  -----------------
         HE           0.000000000000     0.000000000000    -6.617968087453     4.002603254130
      Gh(LI)          0.000000000000     0.000000000000     3.775525602565     7.016003436600

  Running in c2v symmetry.

  Rotational constants: A = ************  B =      0.21866  C =      0.21866 [cm^-1]
  Rotational constants: A = ************  B =   6555.20329  C =   6555.20329 [MHz]
  Nuclear repulsion =    0.000000000000000

  Charge       = 0
  Multiplicity = 1
  Electrons    = 2
  Nalpha       = 1
  Nbeta        = 1

  ==> Algorithm <==

  SCF Algorithm Type is DF.
  DIIS enabled.
  MOM disabled.
  Fractional occupation disabled.
  Guess Type is SAD.
  Energy threshold   = 1.00e-06
  Density threshold  = 1.00e-06
  Integral threshold = 1.00e-12

  ==> Primary Basis <==

  Basis Set: AUG-CC-PVDZ
    Blend: AUG-CC-PVDZ
    Number of shells: 14
    Number of basis functions: 32
    Number of Cartesian functions: 34
    Spherical Harmonics?: true
    Max angular momentum: 2

   => Loading Basis Set <=

    Name: (AUG-CC-PVDZ AUX)
    Role: JKFIT
    Keyword: DF_BASIS_SCF
    atoms 1 entry HE         line    34 file /opt/psi4/share/psi4/basis/def2-universal-jkfit.gbs 
    atoms 2 entry LI         line    54 file /opt/psi4/share/psi4/basis/def2-universal-jkfit.gbs 

  ==> Integral Setup <==

  DFHelper Memory: AOs need 0.001 GiB; user supplied 1.397 GiB. 
  SCF_SUBTYPE=INCORE selected. In-core MEM_DF algorithm will be used.
  Using in-core AOs.

  ==> MemDFJK: Density-Fitted J/K Matrices <==

    J tasked:                   Yes
    K tasked:                   Yes
    wK tasked:                   No
    OpenMP threads:               1
    Memory [MiB]:              1430
    Algorithm:                 Core
    Schwarz Cutoff:           1E-12
    Mask sparsity (%):       0.0000
    Fitting Condition:        1E-10

   => Auxiliary Basis Set <=

  Basis Set: (AUG-CC-PVDZ AUX)
    Blend: DEF2-UNIVERSAL-JKFIT
    Number of shells: 26
    Number of basis functions: 74
    Number of Cartesian functions: 85
    Spherical Harmonics?: true
    Max angular momentum: 3

  Minimum eigenvalue in the overlap matrix is 1.9608241079E-02.
  Reciprocal condition number of the overlap matrix is 7.1847730689E-03.
    Using symmetric orthogonalization.

  ==> Pre-Iterations <==

  SCF Guess: Superposition of Atomic Densities via on-the-fly atomic UHF (no occupation information).

   -------------------------
    Irrep   Nso     Nmo    
   -------------------------
     A1        16      16 
     A2         2       2 
     B1         7       7 
     B2         7       7 
   -------------------------
    Total      32      32
   -------------------------

  ==> Iterations <==

                           Total Energy        Delta E     RMS |[F,P]|

   @DF-RHF iter SAD:    -2.85573292101586   -2.85573e+00   0.00000e+00 
   @DF-RHF iter   1:    -2.85573455020854   -1.62919e-06   7.87355e-06 DIIS
   @DF-RHF iter   2:    -2.85573457229834   -2.20898e-08   1.00055e-06 DIIS
   @DF-RHF iter   3:    -2.85573457268048   -3.82143e-10   4.93732e-08 DIIS
  Energy and wave function converged.


  ==> Post-Iterations <==

    Orbital Energies [Eh]
    ---------------------

    Doubly Occupied:                                                      

       1A1    -0.917141  

    Virtual:                                                              

       2A1     0.011696     1B1     0.013729     1B2     0.013729  
       3A1     0.015079     4A1     0.062692     2B1     0.070944  
       2B2     0.070944     5A1     0.071558     6A1     0.178422  
       3B2     0.209586     3B1     0.209586     7A1     0.209691  
       1A2     0.209691     8A1     0.237318     9A1     0.288692  
       4B2     0.348662     4B1     0.348662    10A1     0.352155  
       5B1     0.532634     5B2     0.532634    11A1     0.539015  
      12A1     0.615166     2A2     0.615166     6B2     0.615896  
       6B1     0.615896    13A1     0.639355    14A1     1.743816  
       7B1     3.026454     7B2     3.026454    15A1     3.036507  
      16A1     3.785521  

    Final Occupation by Irrep:
             A1    A2    B1    B2 
    DOCC [     1,    0,    0,    0 ]
    NA   [     1,    0,    0,    0 ]
    NB   [     1,    0,    0,    0 ]

  @DF-RHF Final Energy:    -2.85573457268048

   => Energetics <=

    Nuclear Repulsion Energy =              0.0000000000000000
    One-Electron Energy =                  -3.8771867553374815
    Two-Electron Energy =                   1.0214521826569978
    Total Energy =                         -2.8557345726804835

Computation Completed


Properties will be evaluated at   0.000000,   0.000000,   0.000000 [a0]

Properties computed using the SCF density matrix


 Multipole Moments:

 ------------------------------------------------------------------------------------
     Multipole            Electronic (a.u.)      Nuclear  (a.u.)        Total (a.u.)
 ------------------------------------------------------------------------------------

 L = 1.  Multiply by 2.5417464519 to convert [e a0] to [Debye]
 Dipole X            :          0.0000000            0.0000000            0.0000000
 Dipole Y            :          0.0000000            0.0000000            0.0000000
 Dipole Z            :         13.2358426          -13.2359362           -0.0000935
 Magnitude           :                                                    0.0000935

 ------------------------------------------------------------------------------------

*** tstop() called on kichot at Mon Jun 15 06:35:46 2026
Module time:
	user time   =       0.14 seconds =       0.00 minutes
	system time =       0.00 seconds =       0.00 minutes
	total time  =          0 seconds =       0.00 minutes
Total time:
	user time   =       7.62 seconds =       0.13 minutes
	system time =       0.11 seconds =       0.00 minutes
	total time  =          8 seconds =       0.13 minutes

    Psi4 stopped on: Monday, 15 June 2026 06:35AM
    Psi4 wall time for execution: 0:00:00.17


    -----------------------------------------------------------------------
          Psi4: An Open-Source Ab Initio Electronic Structure Package
                               Psi4 1.11a1.dev42 

                         Git: Rev {master} 144882d 


    D. G. A. Smith, L. A. Burns, A. C. Simmonett, R. M. Parrish,
    M. C. Schieber, R. Galvelis, P. Kraus, H. Kruse, R. Di Remigio,
    A. Alenaizan, A. M. James, S. Lehtola, J. P. Misiewicz, M. Scheurer,
    R. A. Shaw, J. B. Schriber, Y. Xie, Z. L. Glick, D. A. Sirianni,
    J. S. O'Brien, J. M. Waldrop, A. Kumar, E. G. Hohenstein,
    B. P. Pritchard, B. R. Brooks, H. F. Schaefer III, A. Yu. Sokolov,
    K. Patkowski, A. E. DePrince III, U. Bozkaya, R. A. King,
    F. A. Evangelista, J. M. Turney, T. D. Crawford, C. D. Sherrill,
    J. Chem. Phys. 152(18) 184108 (2020). https://doi.org/10.1063/5.0006002

                            Additional Code Authors
    E. T. Seidl, C. L. Janssen, E. F. Valeev, M. L. Leininger,
    J. F. Gonthier, R. M. Richard, H. R. McAlexander, M. Saitow, X. Wang,
    P. Verma, M. H. Lechner, A. Jiang, S. Behnle, A. G. Heide,
    M. F. Herbst, D. L. Poole, T. Győri, E. C. Mitchell, J. P. Pederson,
    and A. M. Wallace

             Previous Authors, Complete List of Code Contributors,
                       and Citations for Specific Modules
    https://github.com/psi4/psi4/blob/master/codemeta.json
    https://github.com/psi4/psi4/graphs/contributors
    https://psicode.org/psi4manual/master/introduction.html#citing-psifour

    -----------------------------------------------------------------------


    Psi4 started on: Monday, 15 June 2026 06:35AM

    Process ID: 215698
    Host:       kichot
    PSIDATADIR: /opt/psi4/share/psi4
    Memory:     1.9 GiB
    Threads:    1
    Addons:     a̶d̶c̶c̶, a̶m̶b̶i̶t̶, b̶s̶e̶, c̶c̶t̶3̶, c̶f̶o̶u̶r̶, c̶h̶e̶m̶p̶s̶2̶, c̶p̶p̶e̶, d̶d̶x̶,
                d̶f̶t̶d̶3̶, d̶f̶t̶d̶4̶, d̶k̶h̶, e̶c̶p̶i̶n̶t̶, e̶i̶n̶s̶u̶m̶s̶, f̶o̶r̶t̶e̶,
                g̶a̶u̶x̶c̶, g̶c̶p̶, g̶d̶m̶a̶, g̶e̶o̶m̶e̶t̶r̶i̶c̶, g̶p̶u̶_̶d̶f̶c̶c̶,
                i̶n̶t̶e̶g̶r̶a̶t̶o̶r̶x̶x̶, i̶p̶i̶, l̶i̶b̶e̶f̶p̶, m̶d̶i̶, m̶p̶2̶d̶, m̶r̶c̶c̶,
                o̶o̶o̶, o̶p̶e̶n̶f̶e̶r̶m̶i̶o̶n̶p̶s̶i̶4̶, p̶c̶m̶s̶o̶l̶v̶e̶r̶,
                p̶s̶i̶4̶f̶o̶c̶k̶c̶i̶, p̶s̶i̶x̶a̶s̶, p̶y̶e̶i̶n̶s̶u̶m̶s̶, r̶e̶s̶p̶, s̶i̶m̶i̶n̶t̶,
                s̶n̶s̶m̶p̶2̶, v̶2̶r̶d̶m̶_̶c̶a̶s̶s̶c̶f̶

  ==> Input QCSchema <==

--------------------------------------------------------------------------
{'driver': 'energy',
 'extras': {'psiapi': True, 'wfn_qcvars_only': True},
 'id': None,
 'keywords': {'function_kwargs': {}},
 'model': {'basis': 'aug-cc-pvdz', 'method': 'scf'},
 'molecule': {'atom_labels': ['', ''],
              'atomic_numbers': [2, 3],
              'extras': {},
              'fix_com': True,
              'fix_orientation': True,
              'fragment_charges': [0.0, 1.0],
              'fragment_multiplicities': [1, 1],
              'fragments': [[0], [1]],
              'geometry': [0.0, 0.0, -6.617968087453, 0.0, 0.0, 3.7755256025651],
              'mass_numbers': [4, 7],
              'masses': [4.00260325413, 7.0160034366],
              'molecular_charge': 1.0,
              'molecular_multiplicity': 1,
              'name': 'He-Li+ ([0, 1],[])',
              'provenance': {'creator': 'QCElemental',
                             'routine': 'qcelemental.molparse.from_schema',
                             'version': '0.29.0'},
              'real': [True, True],
              'schema_name': 'qcschema_molecule',
              'schema_version': 2,
              'symbols': ['He', 'Li'],
              'validated': True},
 'protocols': {'stdout': True},
 'provenance': {'creator': 'QCElemental', 'routine': 'qcelemental.models.results', 'version': '0.29.0'},
 'schema_name': 'qcschema_input',
 'schema_version': 1}
--------------------------------------------------------------------------

Scratch directory: /scratch/lukasz/psi4/
   => Libint2 <=

    Primary   basis highest AM E, G, H:  5, 4, 3
    Auxiliary basis highest AM E, G, H:  6, 5, 4
    Onebody   basis highest AM E, G, H:  6, 5, 4
    Solid Harmonics ordering:            Gaussian

*** tstart() called on kichot
*** at Mon Jun 15 06:35:46 2026

   => Loading Basis Set <=

    Name: AUG-CC-PVDZ
    Role: ORBITAL
    Keyword: BASIS
    atoms 1 entry HE         line    54 file /opt/psi4/share/psi4/basis/aug-cc-pvdz.gbs 
    atoms 2 entry LI         line    68 file /opt/psi4/share/psi4/basis/aug-cc-pvdz.gbs 


         ---------------------------------------------------------
                                   SCF
               by Justin Turney, Rob Parrish, Andy Simmonett
                          and Daniel G. A. Smith
                              RHF Reference
                        1 Threads,   1907 MiB Core
         ---------------------------------------------------------

  ==> Geometry <==

    Molecular point group: c2v
    Full point group: C_inf_v

    Geometry (in Bohr), charge = 1, multiplicity = 1:

       Center              X                  Y                   Z               Mass       
    ------------   -----------------  -----------------  -----------------  -----------------
         HE           0.000000000000     0.000000000000    -6.617968087453     4.002603254130
         LI           0.000000000000     0.000000000000     3.775525602565     7.016003436600

  Running in c2v symmetry.

  Rotational constants: A = ************  B =      0.21866  C =      0.21866 [cm^-1]
  Rotational constants: A = ************  B =   6555.20329  C =   6555.20329 [MHz]
  Nuclear repulsion =    0.577284229821816

  Charge       = 1
  Multiplicity = 1
  Electrons    = 4
  Nalpha       = 2
  Nbeta        = 2

  ==> Algorithm <==

  SCF Algorithm Type is DF.
  DIIS enabled.
  MOM disabled.
  Fractional occupation disabled.
  Guess Type is SAD.
  Energy threshold   = 1.00e-06
  Density threshold  = 1.00e-06
  Integral threshold = 1.00e-12

  ==> Primary Basis <==

  Basis Set: AUG-CC-PVDZ
    Blend: AUG-CC-PVDZ
    Number of shells: 14
    Number of basis functions: 32
    Number of Cartesian functions: 34
    Spherical Harmonics?: true
    Max angular momentum: 2

   => Loading Basis Set <=

    Name: (AUG-CC-PVDZ AUX)
    Role: JKFIT
    Keyword: DF_BASIS_SCF
    atoms 1 entry HE         line    34 file /opt/psi4/share/psi4/basis/def2-universal-jkfit.gbs 
    atoms 2 entry LI         line    54 file /opt/psi4/share/psi4/basis/def2-universal-jkfit.gbs 

  ==> Integral Setup <==

  DFHelper Memory: AOs need 0.001 GiB; user supplied 1.397 GiB. 
  SCF_SUBTYPE=INCORE selected. In-core MEM_DF algorithm will be used.
  Using in-core AOs.

  ==> MemDFJK: Density-Fitted J/K Matrices <==

    J tasked:                   Yes
    K tasked:                   Yes
    wK tasked:                   No
    OpenMP threads:               1
    Memory [MiB]:              1430
    Algorithm:                 Core
    Schwarz Cutoff:           1E-12
    Mask sparsity (%):       0.0000
    Fitting Condition:        1E-10

   => Auxiliary Basis Set <=

  Basis Set: (AUG-CC-PVDZ AUX)
    Blend: DEF2-UNIVERSAL-JKFIT
    Number of shells: 26
    Number of basis functions: 74
    Number of Cartesian functions: 85
    Spherical Harmonics?: true
    Max angular momentum: 3

  Minimum eigenvalue in the overlap matrix is 1.9608241079E-02.
  Reciprocal condition number of the overlap matrix is 7.1847730689E-03.
    Using symmetric orthogonalization.

  ==> Pre-Iterations <==

  SCF Guess: Superposition of Atomic Densities via on-the-fly atomic UHF (no occupation information).

   -------------------------
    Irrep   Nso     Nmo    
   -------------------------
     A1        16      16 
     A2         2       2 
     B1         7       7 
     B2         7       7 
   -------------------------
    Total      32      32
   -------------------------

  ==> Iterations <==

                           Total Energy        Delta E     RMS |[F,P]|

   @DF-RHF iter SAD:   -10.15267861627536   -1.01527e+01   0.00000e+00 
   @DF-RHF iter   1:   -10.09179915675445    6.08795e-02   5.74029e-04 ADIIS/DIIS
   @DF-RHF iter   2:   -10.09190874809193   -1.09591e-04   1.33505e-04 ADIIS/DIIS
   @DF-RHF iter   3:   -10.09191503437436   -6.28628e-06   8.44379e-06 DIIS
   @DF-RHF iter   4:   -10.09191505368886   -1.93145e-08   4.63560e-07 DIIS
  Energy and wave function converged.


  ==> Post-Iterations <==

    Orbital Energies [Eh]
    ---------------------

    Doubly Occupied:                                                      

       1A1    -2.792629     2A1    -1.013403  

    Virtual:                                                              

       3A1    -0.196156     1B2    -0.128366     1B1    -0.128366  
       4A1    -0.127986     5A1    -0.072507     2B2    -0.055708  
       2B1    -0.055708     6A1    -0.054006     3B2     0.000056  
       3B1     0.000056     7A1     0.000562     8A1     0.008608  
       4B2     0.013634     4B1     0.013634     9A1     0.013660  
       1A2     0.013660    10A1     0.049126    11A1     0.117188  
       5B2     0.308861     5B1     0.308861    12A1     0.309238  
       2A2     0.309238    13A1     0.312287     6B1     0.438288  
       6B2     0.438288    14A1     0.459760    15A1     1.648069  
       7B2     2.930502     7B1     2.930502    16A1     2.939365  

    Final Occupation by Irrep:
             A1    A2    B1    B2 
    DOCC [     2,    0,    0,    0 ]
    NA   [     2,    0,    0,    0 ]
    NB   [     2,    0,    0,    0 ]

  @DF-RHF Final Energy:   -10.09191505368886

   => Energetics <=

    Nuclear Repulsion Energy =              0.5772842298218156
    One-Electron Energy =                 -13.7263343647264868
    Two-Electron Energy =                   3.0571350812158147
    Total Energy =                        -10.0919150536888562

Computation Completed


Properties will be evaluated at   0.000000,   0.000000,   0.000000 [a0]

Properties computed using the SCF density matrix


 Multipole Moments:

 ------------------------------------------------------------------------------------
     Multipole            Electronic (a.u.)      Nuclear  (a.u.)        Total (a.u.)
 ------------------------------------------------------------------------------------

 L = 1.  Multiply by 2.5417464519 to convert [e a0] to [Debye]
 Dipole X            :          0.0000000            0.0000000            0.0000000
 Dipole Y            :          0.0000000            0.0000000            0.0000000
 Dipole Z            :          5.6725677           -1.9093594            3.7632083
 Magnitude           :                                                    3.7632083

 ------------------------------------------------------------------------------------

*** tstop() called on kichot at Mon Jun 15 06:35:46 2026
Module time:
	user time   =       0.40 seconds =       0.01 minutes
	system time =       0.02 seconds =       0.00 minutes
	total time  =          0 seconds =       0.00 minutes
Total time:
	user time   =       8.06 seconds =       0.13 minutes
	system time =       0.13 seconds =       0.00 minutes
	total time  =          8 seconds =       0.13 minutes

    Psi4 stopped on: Monday, 15 June 2026 06:35AM
    Psi4 wall time for execution: 0:00:00.45


  //>>>>>>>>>>>>>>>>>>>>>>>>>>>>>>>>>>>//
  //          ManyBody Results         //
  //<<<<<<<<<<<<<<<<<<<<<<<<<<<<<<<<<<<//


   ==> N-Body: Counterpoise Corrected (CP) energies <==

              MC n-Body  Total Energy            Interaction Energy                          N-body Contribution to Interaction Energy
                         [Eh]                    [Eh]                  [kcal/mol]            [Eh]                  [kcal/mol]
              §A  1        N/A                   0.000000000000        0.000000000000        0.000000000000        0.000000000000
     FULL/RTN §A  2        N/A                  -0.000057604790       -0.036147551716       -0.000057604790       -0.036147551716

   MC Legend: §A: "(auto)"


Scratch directory: /scratch/lukasz/psi4/

  //>>>>>>>>>>>>>>>>>>>>>>>>>>>>>>>>>>>//
  //   ManyBody Setup: N-Body Levels 2 //
  //<<<<<<<<<<<<<<<<<<<<<<<<<<<<<<<<<<<//

    Model chemistry "(auto)" (§A):          3
        Number of 1-body computations:      2 (nocp: 0, cp: 2, vmfc_compute: 0)
        Number of 2-body computations:      1 (nocp: 0, cp: 1, vmfc_compute: 0)

    -----------------------------------------------------------------------
          Psi4: An Open-Source Ab Initio Electronic Structure Package
                               Psi4 1.11a1.dev42 

                         Git: Rev {master} 144882d 


    D. G. A. Smith, L. A. Burns, A. C. Simmonett, R. M. Parrish,
    M. C. Schieber, R. Galvelis, P. Kraus, H. Kruse, R. Di Remigio,
    A. Alenaizan, A. M. James, S. Lehtola, J. P. Misiewicz, M. Scheurer,
    R. A. Shaw, J. B. Schriber, Y. Xie, Z. L. Glick, D. A. Sirianni,
    J. S. O'Brien, J. M. Waldrop, A. Kumar, E. G. Hohenstein,
    B. P. Pritchard, B. R. Brooks, H. F. Schaefer III, A. Yu. Sokolov,
    K. Patkowski, A. E. DePrince III, U. Bozkaya, R. A. King,
    F. A. Evangelista, J. M. Turney, T. D. Crawford, C. D. Sherrill,
    J. Chem. Phys. 152(18) 184108 (2020). https://doi.org/10.1063/5.0006002

                            Additional Code Authors
    E. T. Seidl, C. L. Janssen, E. F. Valeev, M. L. Leininger,
    J. F. Gonthier, R. M. Richard, H. R. McAlexander, M. Saitow, X. Wang,
    P. Verma, M. H. Lechner, A. Jiang, S. Behnle, A. G. Heide,
    M. F. Herbst, D. L. Poole, T. Győri, E. C. Mitchell, J. P. Pederson,
    and A. M. Wallace

             Previous Authors, Complete List of Code Contributors,
                       and Citations for Specific Modules
    https://github.com/psi4/psi4/blob/master/codemeta.json
    https://github.com/psi4/psi4/graphs/contributors
    https://psicode.org/psi4manual/master/introduction.html#citing-psifour

    -----------------------------------------------------------------------


    Psi4 started on: Monday, 15 June 2026 06:35AM

    Process ID: 215698
    Host:       kichot
    PSIDATADIR: /opt/psi4/share/psi4
    Memory:     1.9 GiB
    Threads:    1
    Addons:     a̶d̶c̶c̶, a̶m̶b̶i̶t̶, b̶s̶e̶, c̶c̶t̶3̶, c̶f̶o̶u̶r̶, c̶h̶e̶m̶p̶s̶2̶, c̶p̶p̶e̶, d̶d̶x̶,
                d̶f̶t̶d̶3̶, d̶f̶t̶d̶4̶, d̶k̶h̶, e̶c̶p̶i̶n̶t̶, e̶i̶n̶s̶u̶m̶s̶, f̶o̶r̶t̶e̶,
                g̶a̶u̶x̶c̶, g̶c̶p̶, g̶d̶m̶a̶, g̶e̶o̶m̶e̶t̶r̶i̶c̶, g̶p̶u̶_̶d̶f̶c̶c̶,
                i̶n̶t̶e̶g̶r̶a̶t̶o̶r̶x̶x̶, i̶p̶i̶, l̶i̶b̶e̶f̶p̶, m̶d̶i̶, m̶p̶2̶d̶, m̶r̶c̶c̶,
                o̶o̶o̶, o̶p̶e̶n̶f̶e̶r̶m̶i̶o̶n̶p̶s̶i̶4̶, p̶c̶m̶s̶o̶l̶v̶e̶r̶,
                p̶s̶i̶4̶f̶o̶c̶k̶c̶i̶, p̶s̶i̶x̶a̶s̶, p̶y̶e̶i̶n̶s̶u̶m̶s̶, r̶e̶s̶p̶, s̶i̶m̶i̶n̶t̶,
                s̶n̶s̶m̶p̶2̶, v̶2̶r̶d̶m̶_̶c̶a̶s̶s̶c̶f̶

  ==> Input QCSchema <==

--------------------------------------------------------------------------
{'driver': 'energy',
 'extras': {'psiapi': True, 'wfn_qcvars_only': True},
 'id': None,
 'keywords': {'function_kwargs': {}},
 'model': {'basis': 'aug-cc-pvdz', 'method': 'mp2'},
 'molecule': {'atom_labels': ['', ''],
              'atomic_numbers': [2, 3],
              'extras': {},
              'fix_com': True,
              'fix_orientation': True,
              'fragment_charges': [0.0, 1.0],
              'fragment_multiplicities': [1, 1],
              'fragments': [[0], [1]],
              'geometry': [0.0, 0.0, -6.617968087453, 0.0, 0.0, 3.7755256025651],
              'mass_numbers': [4, 7],
              'masses': [4.00260325413, 7.0160034366],
              'molecular_charge': 1.0,
              'molecular_multiplicity': 1,
              'name': 'He-Li+ ([1],[0])',
              'provenance': {'creator': 'QCElemental',
                             'routine': 'qcelemental.molparse.from_schema',
                             'version': '0.29.0'},
              'real': [False, True],
              'schema_name': 'qcschema_molecule',
              'schema_version': 2,
              'symbols': ['He', 'Li'],
              'validated': True},
 'protocols': {'stdout': True},
 'provenance': {'creator': 'QCElemental', 'routine': 'qcelemental.models.results', 'version': '0.29.0'},
 'schema_name': 'qcschema_input',
 'schema_version': 1}
--------------------------------------------------------------------------

Scratch directory: /scratch/lukasz/psi4/
    SCF Algorithm Type (re)set to DF.
   => Libint2 <=

    Primary   basis highest AM E, G, H:  5, 4, 3
    Auxiliary basis highest AM E, G, H:  6, 5, 4
    Onebody   basis highest AM E, G, H:  6, 5, 4
    Solid Harmonics ordering:            Gaussian

*** tstart() called on kichot
*** at Mon Jun 15 06:35:47 2026

   => Loading Basis Set <=

    Name: AUG-CC-PVDZ
    Role: ORBITAL
    Keyword: BASIS
    atoms 1 entry HE         line    54 file /opt/psi4/share/psi4/basis/aug-cc-pvdz.gbs 
    atoms 2 entry LI         line    68 file /opt/psi4/share/psi4/basis/aug-cc-pvdz.gbs 


         ---------------------------------------------------------
                                   SCF
               by Justin Turney, Rob Parrish, Andy Simmonett
                          and Daniel G. A. Smith
                              RHF Reference
                        1 Threads,   1907 MiB Core
         ---------------------------------------------------------

  ==> Geometry <==

    Molecular point group: c2v
    Full point group: C_inf_v

    Geometry (in Bohr), charge = 1, multiplicity = 1:

       Center              X                  Y                   Z               Mass       
    ------------   -----------------  -----------------  -----------------  -----------------
      Gh(HE)          0.000000000000     0.000000000000    -6.617968087453     4.002603254130
         LI           0.000000000000     0.000000000000     3.775525602565     7.016003436600

  Running in c2v symmetry.

  Rotational constants: A = ************  B =      0.21866  C =      0.21866 [cm^-1]
  Rotational constants: A = ************  B =   6555.20329  C =   6555.20329 [MHz]
  Nuclear repulsion =    0.000000000000000

  Charge       = 1
  Multiplicity = 1
  Electrons    = 2
  Nalpha       = 1
  Nbeta        = 1

  ==> Algorithm <==

  SCF Algorithm Type is DF.
  DIIS enabled.
  MOM disabled.
  Fractional occupation disabled.
  Guess Type is SAD.
  Energy threshold   = 1.00e-08
  Density threshold  = 1.00e-08
  Integral threshold = 1.00e-12

  ==> Primary Basis <==

  Basis Set: AUG-CC-PVDZ
    Blend: AUG-CC-PVDZ
    Number of shells: 14
    Number of basis functions: 32
    Number of Cartesian functions: 34
    Spherical Harmonics?: true
    Max angular momentum: 2

   => Loading Basis Set <=

    Name: (AUG-CC-PVDZ AUX)
    Role: JKFIT
    Keyword: DF_BASIS_SCF
    atoms 1 entry HE         line    34 file /opt/psi4/share/psi4/basis/def2-universal-jkfit.gbs 
    atoms 2 entry LI         line    54 file /opt/psi4/share/psi4/basis/def2-universal-jkfit.gbs 

  ==> Integral Setup <==

  DFHelper Memory: AOs need 0.001 GiB; user supplied 1.397 GiB. 
  SCF_SUBTYPE=INCORE selected. In-core MEM_DF algorithm will be used.
  Using in-core AOs.

  ==> MemDFJK: Density-Fitted J/K Matrices <==

    J tasked:                   Yes
    K tasked:                   Yes
    wK tasked:                   No
    OpenMP threads:               1
    Memory [MiB]:              1430
    Algorithm:                 Core
    Schwarz Cutoff:           1E-12
    Mask sparsity (%):       0.0000
    Fitting Condition:        1E-10

   => Auxiliary Basis Set <=

  Basis Set: (AUG-CC-PVDZ AUX)
    Blend: DEF2-UNIVERSAL-JKFIT
    Number of shells: 26
    Number of basis functions: 74
    Number of Cartesian functions: 85
    Spherical Harmonics?: true
    Max angular momentum: 3

  Minimum eigenvalue in the overlap matrix is 1.9608241079E-02.
  Reciprocal condition number of the overlap matrix is 7.1847730689E-03.
    Using symmetric orthogonalization.

  ==> Pre-Iterations <==

  SCF Guess: Superposition of Atomic Densities via on-the-fly atomic UHF (no occupation information).

   -------------------------
    Irrep   Nso     Nmo    
   -------------------------
     A1        16      16 
     A2         2       2 
     B1         7       7 
     B2         7       7 
   -------------------------
    Total      32      32
   -------------------------

  ==> Iterations <==

                           Total Energy        Delta E     RMS |[F,P]|

   @DF-RHF iter SAD:    -7.29386098383240   -7.29386e+00   0.00000e+00 
   @DF-RHF iter   1:    -7.23612186341892    5.77391e-02   8.11163e-05 DIIS
   @DF-RHF iter   2:    -7.23612285959460   -9.96176e-07   1.03811e-05 DIIS
   @DF-RHF iter   3:    -7.23612287621797   -1.66234e-08   1.97247e-08 DIIS
   @DF-RHF iter   4:    -7.23612287621803   -6.21725e-14   2.76506e-10 DIIS
  Energy and wave function converged.


  ==> Post-Iterations <==

    Orbital Energies [Eh]
    ---------------------

    Doubly Occupied:                                                      

       1A1    -2.792744  

    Virtual:                                                              

       2A1    -0.196300     3A1    -0.128472     1B2    -0.128470  
       1B1    -0.128470     4A1    -0.073328     5A1    -0.055705  
       2B1    -0.055656     2B2    -0.055656     6A1    -0.006767  
       3B1     0.000008     3B2     0.000008     7A1     0.003072  
       4B2     0.013511     4B1     0.013511     8A1     0.013537  
       1A2     0.013537     9A1     0.046269    10A1     0.052104  
       5B2     0.308889     5B1     0.308889    11A1     0.309128  
       2A2     0.309128    12A1     0.311794     6B1     0.508277  
       6B2     0.508277    13A1     0.521139    14A1     0.581256  
       7B1     3.592867     7B2     3.592867    15A1     3.601098  
      16A1     4.466535  

    Final Occupation by Irrep:
             A1    A2    B1    B2 
    DOCC [     1,    0,    0,    0 ]
    NA   [     1,    0,    0,    0 ]
    NB   [     1,    0,    0,    0 ]

  @DF-RHF Final Energy:    -7.23612287621803

   => Energetics <=

    Nuclear Repulsion Energy =              0.0000000000000000
    One-Electron Energy =                  -8.8867579410157287
    Two-Electron Energy =                   1.6506350647977008
    Total Energy =                         -7.2361228762180279

Computation Completed


Properties will be evaluated at   0.000000,   0.000000,   0.000000 [a0]

Properties computed using the SCF density matrix


 Multipole Moments:

 ------------------------------------------------------------------------------------
     Multipole            Electronic (a.u.)      Nuclear  (a.u.)        Total (a.u.)
 ------------------------------------------------------------------------------------

 L = 1.  Multiply by 2.5417464519 to convert [e a0] to [Debye]
 Dipole X            :          0.0000000            0.0000000            0.0000000
 Dipole Y            :          0.0000000            0.0000000            0.0000000
 Dipole Z            :         -7.5510452           11.3265768            3.7755317
 Magnitude           :                                                    3.7755317

 ------------------------------------------------------------------------------------

*** tstop() called on kichot at Mon Jun 15 06:35:47 2026
Module time:
	user time   =       0.16 seconds =       0.00 minutes
	system time =       0.01 seconds =       0.00 minutes
	total time  =          0 seconds =       0.00 minutes
Total time:
	user time   =       8.33 seconds =       0.14 minutes
	system time =       0.14 seconds =       0.00 minutes
	total time  =          9 seconds =       0.15 minutes

*** tstart() called on kichot
*** at Mon Jun 15 06:35:47 2026


  //>>>>>>>>>>>>>>>>>>>>>>>>>>>>>>>>>>>//
  //               DFMP2               //
  //<<<<<<<<<<<<<<<<<<<<<<<<<<<<<<<<<<<//

   => Loading Basis Set <=

    Name: (AUG-CC-PVDZ AUX)
    Role: RIFIT
    Keyword: DF_BASIS_MP2
    atoms 1 entry HE         line    50 file /opt/psi4/share/psi4/basis/aug-cc-pvdz-ri.gbs 
    atoms 2 entry LI         line    90 file /opt/psi4/share/psi4/basis/def2-qzvpp-ri.gbs 

	 --------------------------------------------------------
	                          DF-MP2                         
	      2nd-Order Density-Fitted Moller-Plesset Theory     
	              RMP2 Wavefunction,   1 Threads             
	                                                         
	        Rob Parrish, Justin Turney, Andy Simmonett,      
	           Ed Hohenstein, and C. David Sherrill          
	 --------------------------------------------------------

   => Auxiliary Basis Set <=

  Basis Set: (AUG-CC-PVDZ AUX)
    Blend: AUG-CC-PVDZ-RI + DEF2-QZVPP-RI
    Number of shells: 34
    Number of basis functions: 114
    Number of Cartesian functions: 143
    Spherical Harmonics?: true
    Max angular momentum: 4

	 --------------------------------------------------------
	                 NBF =    32, NAUX =   114
	 --------------------------------------------------------
	   CLASS    FOCC     OCC    AOCC    AVIR     VIR    FVIR
	   PAIRS       0       1       1      31      31       0
	 --------------------------------------------------------

	-----------------------------------------------------------
	 ==================> DF-MP2 Energies <==================== 
	-----------------------------------------------------------
	 Reference Energy          =      -7.2361228762180279 [Eh]
	 Singles Energy            =      -0.0000000000000000 [Eh]
	 Same-Spin Energy          =       0.0000000000000000 [Eh]
	 Opposite-Spin Energy      =      -0.0001212433760818 [Eh]
	 Correlation Energy        =      -0.0001212433760818 [Eh]
	 Total Energy              =      -7.2362441195941098 [Eh]
	-----------------------------------------------------------
	 ================> DF-SCS-MP2 Energies <================== 
	-----------------------------------------------------------
	 SCS Same-Spin Scale       =       0.3333333333333333 [-]
	 SCS Opposite-Spin Scale   =       1.2000000000000000 [-]
	 SCS Same-Spin Energy      =       0.0000000000000000 [Eh]
	 SCS Opposite-Spin Energy  =      -0.0001454920512982 [Eh]
	 SCS Correlation Energy    =      -0.0001454920512982 [Eh]
	 SCS Total Energy          =      -7.2362683682693261 [Eh]
	-----------------------------------------------------------


*** tstop() called on kichot at Mon Jun 15 06:35:47 2026
Module time:
	user time   =       0.03 seconds =       0.00 minutes
	system time =       0.00 seconds =       0.00 minutes
	total time  =          0 seconds =       0.00 minutes
Total time:
	user time   =       8.36 seconds =       0.14 minutes
	system time =       0.14 seconds =       0.00 minutes
	total time  =          9 seconds =       0.15 minutes

    Psi4 stopped on: Monday, 15 June 2026 06:35AM
    Psi4 wall time for execution: 0:00:00.23


    -----------------------------------------------------------------------
          Psi4: An Open-Source Ab Initio Electronic Structure Package
                               Psi4 1.11a1.dev42 

                         Git: Rev {master} 144882d 


    D. G. A. Smith, L. A. Burns, A. C. Simmonett, R. M. Parrish,
    M. C. Schieber, R. Galvelis, P. Kraus, H. Kruse, R. Di Remigio,
    A. Alenaizan, A. M. James, S. Lehtola, J. P. Misiewicz, M. Scheurer,
    R. A. Shaw, J. B. Schriber, Y. Xie, Z. L. Glick, D. A. Sirianni,
    J. S. O'Brien, J. M. Waldrop, A. Kumar, E. G. Hohenstein,
    B. P. Pritchard, B. R. Brooks, H. F. Schaefer III, A. Yu. Sokolov,
    K. Patkowski, A. E. DePrince III, U. Bozkaya, R. A. King,
    F. A. Evangelista, J. M. Turney, T. D. Crawford, C. D. Sherrill,
    J. Chem. Phys. 152(18) 184108 (2020). https://doi.org/10.1063/5.0006002

                            Additional Code Authors
    E. T. Seidl, C. L. Janssen, E. F. Valeev, M. L. Leininger,
    J. F. Gonthier, R. M. Richard, H. R. McAlexander, M. Saitow, X. Wang,
    P. Verma, M. H. Lechner, A. Jiang, S. Behnle, A. G. Heide,
    M. F. Herbst, D. L. Poole, T. Győri, E. C. Mitchell, J. P. Pederson,
    and A. M. Wallace

             Previous Authors, Complete List of Code Contributors,
                       and Citations for Specific Modules
    https://github.com/psi4/psi4/blob/master/codemeta.json
    https://github.com/psi4/psi4/graphs/contributors
    https://psicode.org/psi4manual/master/introduction.html#citing-psifour

    -----------------------------------------------------------------------


    Psi4 started on: Monday, 15 June 2026 06:35AM

    Process ID: 215698
    Host:       kichot
    PSIDATADIR: /opt/psi4/share/psi4
    Memory:     1.9 GiB
    Threads:    1
    Addons:     a̶d̶c̶c̶, a̶m̶b̶i̶t̶, b̶s̶e̶, c̶c̶t̶3̶, c̶f̶o̶u̶r̶, c̶h̶e̶m̶p̶s̶2̶, c̶p̶p̶e̶, d̶d̶x̶,
                d̶f̶t̶d̶3̶, d̶f̶t̶d̶4̶, d̶k̶h̶, e̶c̶p̶i̶n̶t̶, e̶i̶n̶s̶u̶m̶s̶, f̶o̶r̶t̶e̶,
                g̶a̶u̶x̶c̶, g̶c̶p̶, g̶d̶m̶a̶, g̶e̶o̶m̶e̶t̶r̶i̶c̶, g̶p̶u̶_̶d̶f̶c̶c̶,
                i̶n̶t̶e̶g̶r̶a̶t̶o̶r̶x̶x̶, i̶p̶i̶, l̶i̶b̶e̶f̶p̶, m̶d̶i̶, m̶p̶2̶d̶, m̶r̶c̶c̶,
                o̶o̶o̶, o̶p̶e̶n̶f̶e̶r̶m̶i̶o̶n̶p̶s̶i̶4̶, p̶c̶m̶s̶o̶l̶v̶e̶r̶,
                p̶s̶i̶4̶f̶o̶c̶k̶c̶i̶, p̶s̶i̶x̶a̶s̶, p̶y̶e̶i̶n̶s̶u̶m̶s̶, r̶e̶s̶p̶, s̶i̶m̶i̶n̶t̶,
                s̶n̶s̶m̶p̶2̶, v̶2̶r̶d̶m̶_̶c̶a̶s̶s̶c̶f̶

  ==> Input QCSchema <==

--------------------------------------------------------------------------
{'driver': 'energy',
 'extras': {'psiapi': True, 'wfn_qcvars_only': True},
 'id': None,
 'keywords': {'function_kwargs': {}},
 'model': {'basis': 'aug-cc-pvdz', 'method': 'mp2'},
 'molecule': {'atom_labels': ['', ''],
              'atomic_numbers': [2, 3],
              'extras': {},
              'fix_com': True,
              'fix_orientation': True,
              'fragment_charges': [0.0, 0.0],
              'fragment_multiplicities': [1, 1],
              'fragments': [[0], [1]],
              'geometry': [0.0, 0.0, -6.617968087453, 0.0, 0.0, 3.7755256025651],
              'mass_numbers': [4, 7],
              'masses': [4.00260325413, 7.0160034366],
              'molecular_charge': 0.0,
              'molecular_multiplicity': 1,
              'name': 'He-Li+ ([0],[1])',
              'provenance': {'creator': 'QCElemental',
                             'routine': 'qcelemental.molparse.from_schema',
                             'version': '0.29.0'},
              'real': [True, False],
              'schema_name': 'qcschema_molecule',
              'schema_version': 2,
              'symbols': ['He', 'Li'],
              'validated': True},
 'protocols': {'stdout': True},
 'provenance': {'creator': 'QCElemental', 'routine': 'qcelemental.models.results', 'version': '0.29.0'},
 'schema_name': 'qcschema_input',
 'schema_version': 1}
--------------------------------------------------------------------------

Scratch directory: /scratch/lukasz/psi4/
    SCF Algorithm Type (re)set to DF.
   => Libint2 <=

    Primary   basis highest AM E, G, H:  5, 4, 3
    Auxiliary basis highest AM E, G, H:  6, 5, 4
    Onebody   basis highest AM E, G, H:  6, 5, 4
    Solid Harmonics ordering:            Gaussian

*** tstart() called on kichot
*** at Mon Jun 15 06:35:47 2026

   => Loading Basis Set <=

    Name: AUG-CC-PVDZ
    Role: ORBITAL
    Keyword: BASIS
    atoms 1 entry HE         line    54 file /opt/psi4/share/psi4/basis/aug-cc-pvdz.gbs 
    atoms 2 entry LI         line    68 file /opt/psi4/share/psi4/basis/aug-cc-pvdz.gbs 


         ---------------------------------------------------------
                                   SCF
               by Justin Turney, Rob Parrish, Andy Simmonett
                          and Daniel G. A. Smith
                              RHF Reference
                        1 Threads,   1907 MiB Core
         ---------------------------------------------------------

  ==> Geometry <==

    Molecular point group: c2v
    Full point group: C_inf_v

    Geometry (in Bohr), charge = 0, multiplicity = 1:

       Center              X                  Y                   Z               Mass       
    ------------   -----------------  -----------------  -----------------  -----------------
         HE           0.000000000000     0.000000000000    -6.617968087453     4.002603254130
      Gh(LI)          0.000000000000     0.000000000000     3.775525602565     7.016003436600

  Running in c2v symmetry.

  Rotational constants: A = ************  B =      0.21866  C =      0.21866 [cm^-1]
  Rotational constants: A = ************  B =   6555.20329  C =   6555.20329 [MHz]
  Nuclear repulsion =    0.000000000000000

  Charge       = 0
  Multiplicity = 1
  Electrons    = 2
  Nalpha       = 1
  Nbeta        = 1

  ==> Algorithm <==

  SCF Algorithm Type is DF.
  DIIS enabled.
  MOM disabled.
  Fractional occupation disabled.
  Guess Type is SAD.
  Energy threshold   = 1.00e-08
  Density threshold  = 1.00e-08
  Integral threshold = 1.00e-12

  ==> Primary Basis <==

  Basis Set: AUG-CC-PVDZ
    Blend: AUG-CC-PVDZ
    Number of shells: 14
    Number of basis functions: 32
    Number of Cartesian functions: 34
    Spherical Harmonics?: true
    Max angular momentum: 2

   => Loading Basis Set <=

    Name: (AUG-CC-PVDZ AUX)
    Role: JKFIT
    Keyword: DF_BASIS_SCF
    atoms 1 entry HE         line    34 file /opt/psi4/share/psi4/basis/def2-universal-jkfit.gbs 
    atoms 2 entry LI         line    54 file /opt/psi4/share/psi4/basis/def2-universal-jkfit.gbs 

  ==> Integral Setup <==

  DFHelper Memory: AOs need 0.001 GiB; user supplied 1.397 GiB. 
  SCF_SUBTYPE=INCORE selected. In-core MEM_DF algorithm will be used.
  Using in-core AOs.

  ==> MemDFJK: Density-Fitted J/K Matrices <==

    J tasked:                   Yes
    K tasked:                   Yes
    wK tasked:                   No
    OpenMP threads:               1
    Memory [MiB]:              1430
    Algorithm:                 Core
    Schwarz Cutoff:           1E-12
    Mask sparsity (%):       0.0000
    Fitting Condition:        1E-10

   => Auxiliary Basis Set <=

  Basis Set: (AUG-CC-PVDZ AUX)
    Blend: DEF2-UNIVERSAL-JKFIT
    Number of shells: 26
    Number of basis functions: 74
    Number of Cartesian functions: 85
    Spherical Harmonics?: true
    Max angular momentum: 3

  Minimum eigenvalue in the overlap matrix is 1.9608241079E-02.
  Reciprocal condition number of the overlap matrix is 7.1847730689E-03.
    Using symmetric orthogonalization.

  ==> Pre-Iterations <==

  SCF Guess: Superposition of Atomic Densities via on-the-fly atomic UHF (no occupation information).

   -------------------------
    Irrep   Nso     Nmo    
   -------------------------
     A1        16      16 
     A2         2       2 
     B1         7       7 
     B2         7       7 
   -------------------------
    Total      32      32
   -------------------------

  ==> Iterations <==

                           Total Energy        Delta E     RMS |[F,P]|

   @DF-RHF iter SAD:    -2.85573292101586   -2.85573e+00   0.00000e+00 
   @DF-RHF iter   1:    -2.85573455020854   -1.62919e-06   7.87355e-06 DIIS
   @DF-RHF iter   2:    -2.85573457229834   -2.20898e-08   1.00055e-06 DIIS
   @DF-RHF iter   3:    -2.85573457268048   -3.82143e-10   4.93732e-08 DIIS
   @DF-RHF iter   4:    -2.85573457268132   -8.32223e-13   5.44584e-09 DIIS
  Energy and wave function converged.


  ==> Post-Iterations <==

    Orbital Energies [Eh]
    ---------------------

    Doubly Occupied:                                                      

       1A1    -0.917141  

    Virtual:                                                              

       2A1     0.011696     1B1     0.013729     1B2     0.013729  
       3A1     0.015079     4A1     0.062692     2B2     0.070944  
       2B1     0.070944     5A1     0.071558     6A1     0.178422  
       3B2     0.209586     3B1     0.209586     7A1     0.209691  
       1A2     0.209691     8A1     0.237318     9A1     0.288692  
       4B2     0.348662     4B1     0.348662    10A1     0.352155  
       5B1     0.532634     5B2     0.532634    11A1     0.539015  
      12A1     0.615166     2A2     0.615166     6B2     0.615896  
       6B1     0.615896    13A1     0.639355    14A1     1.743816  
       7B2     3.026454     7B1     3.026454    15A1     3.036507  
      16A1     3.785521  

    Final Occupation by Irrep:
             A1    A2    B1    B2 
    DOCC [     1,    0,    0,    0 ]
    NA   [     1,    0,    0,    0 ]
    NB   [     1,    0,    0,    0 ]

  @DF-RHF Final Energy:    -2.85573457268132

   => Energetics <=

    Nuclear Repulsion Energy =              0.0000000000000000
    One-Electron Energy =                  -3.8771867580394659
    Two-Electron Energy =                   1.0214521853581500
    Total Energy =                         -2.8557345726813157

Computation Completed


Properties will be evaluated at   0.000000,   0.000000,   0.000000 [a0]

Properties computed using the SCF density matrix


 Multipole Moments:

 ------------------------------------------------------------------------------------
     Multipole            Electronic (a.u.)      Nuclear  (a.u.)        Total (a.u.)
 ------------------------------------------------------------------------------------

 L = 1.  Multiply by 2.5417464519 to convert [e a0] to [Debye]
 Dipole X            :          0.0000000            0.0000000            0.0000000
 Dipole Y            :          0.0000000            0.0000000            0.0000000
 Dipole Z            :         13.2358425          -13.2359362           -0.0000937
 Magnitude           :                                                    0.0000937

 ------------------------------------------------------------------------------------

*** tstop() called on kichot at Mon Jun 15 06:35:47 2026
Module time:
	user time   =       0.15 seconds =       0.00 minutes
	system time =       0.00 seconds =       0.00 minutes
	total time  =          0 seconds =       0.00 minutes
Total time:
	user time   =       8.55 seconds =       0.14 minutes
	system time =       0.14 seconds =       0.00 minutes
	total time  =          9 seconds =       0.15 minutes

*** tstart() called on kichot
*** at Mon Jun 15 06:35:47 2026


  //>>>>>>>>>>>>>>>>>>>>>>>>>>>>>>>>>>>//
  //               DFMP2               //
  //<<<<<<<<<<<<<<<<<<<<<<<<<<<<<<<<<<<//

   => Loading Basis Set <=

    Name: (AUG-CC-PVDZ AUX)
    Role: RIFIT
    Keyword: DF_BASIS_MP2
    atoms 1 entry HE         line    50 file /opt/psi4/share/psi4/basis/aug-cc-pvdz-ri.gbs 
    atoms 2 entry LI         line    90 file /opt/psi4/share/psi4/basis/def2-qzvpp-ri.gbs 

	 --------------------------------------------------------
	                          DF-MP2                         
	      2nd-Order Density-Fitted Moller-Plesset Theory     
	              RMP2 Wavefunction,   1 Threads             
	                                                         
	        Rob Parrish, Justin Turney, Andy Simmonett,      
	           Ed Hohenstein, and C. David Sherrill          
	 --------------------------------------------------------

   => Auxiliary Basis Set <=

  Basis Set: (AUG-CC-PVDZ AUX)
    Blend: AUG-CC-PVDZ-RI + DEF2-QZVPP-RI
    Number of shells: 34
    Number of basis functions: 114
    Number of Cartesian functions: 143
    Spherical Harmonics?: true
    Max angular momentum: 4

	 --------------------------------------------------------
	                 NBF =    32, NAUX =   114
	 --------------------------------------------------------
	   CLASS    FOCC     OCC    AOCC    AVIR     VIR    FVIR
	   PAIRS       0       1       1      31      31       0
	 --------------------------------------------------------

	-----------------------------------------------------------
	 ==================> DF-MP2 Energies <==================== 
	-----------------------------------------------------------
	 Reference Energy          =      -2.8557345726813157 [Eh]
	 Singles Energy            =      -0.0000000000000000 [Eh]
	 Same-Spin Energy          =      -0.0000000000000000 [Eh]
	 Opposite-Spin Energy      =      -0.0269610556515747 [Eh]
	 Correlation Energy        =      -0.0269610556515747 [Eh]
	 Total Energy              =      -2.8826956283328902 [Eh]
	-----------------------------------------------------------
	 ================> DF-SCS-MP2 Energies <================== 
	-----------------------------------------------------------
	 SCS Same-Spin Scale       =       0.3333333333333333 [-]
	 SCS Opposite-Spin Scale   =       1.2000000000000000 [-]
	 SCS Same-Spin Energy      =      -0.0000000000000000 [Eh]
	 SCS Opposite-Spin Energy  =      -0.0323532667818896 [Eh]
	 SCS Correlation Energy    =      -0.0323532667818896 [Eh]
	 SCS Total Energy          =      -2.8880878394632052 [Eh]
	-----------------------------------------------------------


*** tstop() called on kichot at Mon Jun 15 06:35:47 2026
Module time:
	user time   =       0.03 seconds =       0.00 minutes
	system time =       0.00 seconds =       0.00 minutes
	total time  =          0 seconds =       0.00 minutes
Total time:
	user time   =       8.58 seconds =       0.14 minutes
	system time =       0.14 seconds =       0.00 minutes
	total time  =          9 seconds =       0.15 minutes

    Psi4 stopped on: Monday, 15 June 2026 06:35AM
    Psi4 wall time for execution: 0:00:00.21


    -----------------------------------------------------------------------
          Psi4: An Open-Source Ab Initio Electronic Structure Package
                               Psi4 1.11a1.dev42 

                         Git: Rev {master} 144882d 


    D. G. A. Smith, L. A. Burns, A. C. Simmonett, R. M. Parrish,
    M. C. Schieber, R. Galvelis, P. Kraus, H. Kruse, R. Di Remigio,
    A. Alenaizan, A. M. James, S. Lehtola, J. P. Misiewicz, M. Scheurer,
    R. A. Shaw, J. B. Schriber, Y. Xie, Z. L. Glick, D. A. Sirianni,
    J. S. O'Brien, J. M. Waldrop, A. Kumar, E. G. Hohenstein,
    B. P. Pritchard, B. R. Brooks, H. F. Schaefer III, A. Yu. Sokolov,
    K. Patkowski, A. E. DePrince III, U. Bozkaya, R. A. King,
    F. A. Evangelista, J. M. Turney, T. D. Crawford, C. D. Sherrill,
    J. Chem. Phys. 152(18) 184108 (2020). https://doi.org/10.1063/5.0006002

                            Additional Code Authors
    E. T. Seidl, C. L. Janssen, E. F. Valeev, M. L. Leininger,
    J. F. Gonthier, R. M. Richard, H. R. McAlexander, M. Saitow, X. Wang,
    P. Verma, M. H. Lechner, A. Jiang, S. Behnle, A. G. Heide,
    M. F. Herbst, D. L. Poole, T. Győri, E. C. Mitchell, J. P. Pederson,
    and A. M. Wallace

             Previous Authors, Complete List of Code Contributors,
                       and Citations for Specific Modules
    https://github.com/psi4/psi4/blob/master/codemeta.json
    https://github.com/psi4/psi4/graphs/contributors
    https://psicode.org/psi4manual/master/introduction.html#citing-psifour

    -----------------------------------------------------------------------


    Psi4 started on: Monday, 15 June 2026 06:35AM

    Process ID: 215698
    Host:       kichot
    PSIDATADIR: /opt/psi4/share/psi4
    Memory:     1.9 GiB
    Threads:    1
    Addons:     a̶d̶c̶c̶, a̶m̶b̶i̶t̶, b̶s̶e̶, c̶c̶t̶3̶, c̶f̶o̶u̶r̶, c̶h̶e̶m̶p̶s̶2̶, c̶p̶p̶e̶, d̶d̶x̶,
                d̶f̶t̶d̶3̶, d̶f̶t̶d̶4̶, d̶k̶h̶, e̶c̶p̶i̶n̶t̶, e̶i̶n̶s̶u̶m̶s̶, f̶o̶r̶t̶e̶,
                g̶a̶u̶x̶c̶, g̶c̶p̶, g̶d̶m̶a̶, g̶e̶o̶m̶e̶t̶r̶i̶c̶, g̶p̶u̶_̶d̶f̶c̶c̶,
                i̶n̶t̶e̶g̶r̶a̶t̶o̶r̶x̶x̶, i̶p̶i̶, l̶i̶b̶e̶f̶p̶, m̶d̶i̶, m̶p̶2̶d̶, m̶r̶c̶c̶,
                o̶o̶o̶, o̶p̶e̶n̶f̶e̶r̶m̶i̶o̶n̶p̶s̶i̶4̶, p̶c̶m̶s̶o̶l̶v̶e̶r̶,
                p̶s̶i̶4̶f̶o̶c̶k̶c̶i̶, p̶s̶i̶x̶a̶s̶, p̶y̶e̶i̶n̶s̶u̶m̶s̶, r̶e̶s̶p̶, s̶i̶m̶i̶n̶t̶,
                s̶n̶s̶m̶p̶2̶, v̶2̶r̶d̶m̶_̶c̶a̶s̶s̶c̶f̶

  ==> Input QCSchema <==

--------------------------------------------------------------------------
{'driver': 'energy',
 'extras': {'psiapi': True, 'wfn_qcvars_only': True},
 'id': None,
 'keywords': {'function_kwargs': {}},
 'model': {'basis': 'aug-cc-pvdz', 'method': 'mp2'},
 'molecule': {'atom_labels': ['', ''],
              'atomic_numbers': [2, 3],
              'extras': {},
              'fix_com': True,
              'fix_orientation': True,
              'fragment_charges': [0.0, 1.0],
              'fragment_multiplicities': [1, 1],
              'fragments': [[0], [1]],
              'geometry': [0.0, 0.0, -6.617968087453, 0.0, 0.0, 3.7755256025651],
              'mass_numbers': [4, 7],
              'masses': [4.00260325413, 7.0160034366],
              'molecular_charge': 1.0,
              'molecular_multiplicity': 1,
              'name': 'He-Li+ ([0, 1],[])',
              'provenance': {'creator': 'QCElemental',
                             'routine': 'qcelemental.molparse.from_schema',
                             'version': '0.29.0'},
              'real': [True, True],
              'schema_name': 'qcschema_molecule',
              'schema_version': 2,
              'symbols': ['He', 'Li'],
              'validated': True},
 'protocols': {'stdout': True},
 'provenance': {'creator': 'QCElemental', 'routine': 'qcelemental.models.results', 'version': '0.29.0'},
 'schema_name': 'qcschema_input',
 'schema_version': 1}
--------------------------------------------------------------------------

Scratch directory: /scratch/lukasz/psi4/
    SCF Algorithm Type (re)set to DF.
   => Libint2 <=

    Primary   basis highest AM E, G, H:  5, 4, 3
    Auxiliary basis highest AM E, G, H:  6, 5, 4
    Onebody   basis highest AM E, G, H:  6, 5, 4
    Solid Harmonics ordering:            Gaussian

*** tstart() called on kichot
*** at Mon Jun 15 06:35:47 2026

   => Loading Basis Set <=

    Name: AUG-CC-PVDZ
    Role: ORBITAL
    Keyword: BASIS
    atoms 1 entry HE         line    54 file /opt/psi4/share/psi4/basis/aug-cc-pvdz.gbs 
    atoms 2 entry LI         line    68 file /opt/psi4/share/psi4/basis/aug-cc-pvdz.gbs 


         ---------------------------------------------------------
                                   SCF
               by Justin Turney, Rob Parrish, Andy Simmonett
                          and Daniel G. A. Smith
                              RHF Reference
                        1 Threads,   1907 MiB Core
         ---------------------------------------------------------

  ==> Geometry <==

    Molecular point group: c2v
    Full point group: C_inf_v

    Geometry (in Bohr), charge = 1, multiplicity = 1:

       Center              X                  Y                   Z               Mass       
    ------------   -----------------  -----------------  -----------------  -----------------
         HE           0.000000000000     0.000000000000    -6.617968087453     4.002603254130
         LI           0.000000000000     0.000000000000     3.775525602565     7.016003436600

  Running in c2v symmetry.

  Rotational constants: A = ************  B =      0.21866  C =      0.21866 [cm^-1]
  Rotational constants: A = ************  B =   6555.20329  C =   6555.20329 [MHz]
  Nuclear repulsion =    0.577284229821816

  Charge       = 1
  Multiplicity = 1
  Electrons    = 4
  Nalpha       = 2
  Nbeta        = 2

  ==> Algorithm <==

  SCF Algorithm Type is DF.
  DIIS enabled.
  MOM disabled.
  Fractional occupation disabled.
  Guess Type is SAD.
  Energy threshold   = 1.00e-08
  Density threshold  = 1.00e-08
  Integral threshold = 1.00e-12

  ==> Primary Basis <==

  Basis Set: AUG-CC-PVDZ
    Blend: AUG-CC-PVDZ
    Number of shells: 14
    Number of basis functions: 32
    Number of Cartesian functions: 34
    Spherical Harmonics?: true
    Max angular momentum: 2

   => Loading Basis Set <=

    Name: (AUG-CC-PVDZ AUX)
    Role: JKFIT
    Keyword: DF_BASIS_SCF
    atoms 1 entry HE         line    34 file /opt/psi4/share/psi4/basis/def2-universal-jkfit.gbs 
    atoms 2 entry LI         line    54 file /opt/psi4/share/psi4/basis/def2-universal-jkfit.gbs 

  ==> Integral Setup <==

  DFHelper Memory: AOs need 0.001 GiB; user supplied 1.397 GiB. 
  SCF_SUBTYPE=INCORE selected. In-core MEM_DF algorithm will be used.
  Using in-core AOs.

  ==> MemDFJK: Density-Fitted J/K Matrices <==

    J tasked:                   Yes
    K tasked:                   Yes
    wK tasked:                   No
    OpenMP threads:               1
    Memory [MiB]:              1430
    Algorithm:                 Core
    Schwarz Cutoff:           1E-12
    Mask sparsity (%):       0.0000
    Fitting Condition:        1E-10

   => Auxiliary Basis Set <=

  Basis Set: (AUG-CC-PVDZ AUX)
    Blend: DEF2-UNIVERSAL-JKFIT
    Number of shells: 26
    Number of basis functions: 74
    Number of Cartesian functions: 85
    Spherical Harmonics?: true
    Max angular momentum: 3

  Minimum eigenvalue in the overlap matrix is 1.9608241079E-02.
  Reciprocal condition number of the overlap matrix is 7.1847730689E-03.
    Using symmetric orthogonalization.

  ==> Pre-Iterations <==

  SCF Guess: Superposition of Atomic Densities via on-the-fly atomic UHF (no occupation information).

   -------------------------
    Irrep   Nso     Nmo    
   -------------------------
     A1        16      16 
     A2         2       2 
     B1         7       7 
     B2         7       7 
   -------------------------
    Total      32      32
   -------------------------

  ==> Iterations <==

                           Total Energy        Delta E     RMS |[F,P]|

   @DF-RHF iter SAD:   -10.15267861627536   -1.01527e+01   0.00000e+00 
   @DF-RHF iter   1:   -10.09179915675445    6.08795e-02   5.74029e-04 ADIIS/DIIS
   @DF-RHF iter   2:   -10.09190874809193   -1.09591e-04   1.33505e-04 ADIIS/DIIS
   @DF-RHF iter   3:   -10.09191503437436   -6.28628e-06   8.44379e-06 DIIS
   @DF-RHF iter   4:   -10.09191505368886   -1.93145e-08   4.63560e-07 DIIS
   @DF-RHF iter   5:   -10.09191505375791   -6.90541e-11   3.94910e-08 DIIS
   @DF-RHF iter   6:   -10.09191505375849   -5.77316e-13   8.32764e-10 DIIS
  Energy and wave function converged.


  ==> Post-Iterations <==

    Orbital Energies [Eh]
    ---------------------

    Doubly Occupied:                                                      

       1A1    -2.792629     2A1    -1.013404  

    Virtual:                                                              

       3A1    -0.196156     1B2    -0.128366     1B1    -0.128366  
       4A1    -0.127986     5A1    -0.072507     2B2    -0.055708  
       2B1    -0.055708     6A1    -0.054006     3B1     0.000056  
       3B2     0.000056     7A1     0.000562     8A1     0.008608  
       4B2     0.013634     4B1     0.013634     9A1     0.013660  
       1A2     0.013660    10A1     0.049126    11A1     0.117188  
       5B2     0.308861     5B1     0.308861    12A1     0.309238  
       2A2     0.309238    13A1     0.312287     6B1     0.438287  
       6B2     0.438287    14A1     0.459759    15A1     1.648068  
       7B2     2.930501     7B1     2.930501    16A1     2.939364  

    Final Occupation by Irrep:
             A1    A2    B1    B2 
    DOCC [     2,    0,    0,    0 ]
    NA   [     2,    0,    0,    0 ]
    NB   [     2,    0,    0,    0 ]

  @DF-RHF Final Energy:   -10.09191505375849

   => Energetics <=

    Nuclear Repulsion Energy =              0.5772842298218156
    One-Electron Energy =                 -13.7263327507758444
    Two-Electron Energy =                   3.0571334671955417
    Total Energy =                        -10.0919150537584876

Computation Completed


Properties will be evaluated at   0.000000,   0.000000,   0.000000 [a0]

Properties computed using the SCF density matrix


 Multipole Moments:

 ------------------------------------------------------------------------------------
     Multipole            Electronic (a.u.)      Nuclear  (a.u.)        Total (a.u.)
 ------------------------------------------------------------------------------------

 L = 1.  Multiply by 2.5417464519 to convert [e a0] to [Debye]
 Dipole X            :          0.0000000            0.0000000            0.0000000
 Dipole Y            :          0.0000000            0.0000000            0.0000000
 Dipole Z            :          5.6725670           -1.9093594            3.7632076
 Magnitude           :                                                    3.7632076

 ------------------------------------------------------------------------------------

*** tstop() called on kichot at Mon Jun 15 06:35:47 2026
Module time:
	user time   =       0.18 seconds =       0.00 minutes
	system time =       0.00 seconds =       0.00 minutes
	total time  =          0 seconds =       0.00 minutes
Total time:
	user time   =       8.80 seconds =       0.15 minutes
	system time =       0.14 seconds =       0.00 minutes
	total time  =          9 seconds =       0.15 minutes

*** tstart() called on kichot
*** at Mon Jun 15 06:35:47 2026


  //>>>>>>>>>>>>>>>>>>>>>>>>>>>>>>>>>>>//
  //               DFMP2               //
  //<<<<<<<<<<<<<<<<<<<<<<<<<<<<<<<<<<<//

   => Loading Basis Set <=

    Name: (AUG-CC-PVDZ AUX)
    Role: RIFIT
    Keyword: DF_BASIS_MP2
    atoms 1 entry HE         line    50 file /opt/psi4/share/psi4/basis/aug-cc-pvdz-ri.gbs 
    atoms 2 entry LI         line    90 file /opt/psi4/share/psi4/basis/def2-qzvpp-ri.gbs 

	 --------------------------------------------------------
	                          DF-MP2                         
	      2nd-Order Density-Fitted Moller-Plesset Theory     
	              RMP2 Wavefunction,   1 Threads             
	                                                         
	        Rob Parrish, Justin Turney, Andy Simmonett,      
	           Ed Hohenstein, and C. David Sherrill          
	 --------------------------------------------------------

   => Auxiliary Basis Set <=

  Basis Set: (AUG-CC-PVDZ AUX)
    Blend: AUG-CC-PVDZ-RI + DEF2-QZVPP-RI
    Number of shells: 34
    Number of basis functions: 114
    Number of Cartesian functions: 143
    Spherical Harmonics?: true
    Max angular momentum: 4

	 --------------------------------------------------------
	                 NBF =    32, NAUX =   114
	 --------------------------------------------------------
	   CLASS    FOCC     OCC    AOCC    AVIR     VIR    FVIR
	   PAIRS       0       2       2      30      30       0
	 --------------------------------------------------------

	-----------------------------------------------------------
	 ==================> DF-MP2 Energies <==================== 
	-----------------------------------------------------------
	 Reference Energy          =     -10.0919150537584876 [Eh]
	 Singles Energy            =      -0.0000000000000000 [Eh]
	 Same-Spin Energy          =      -0.0000000262334414 [Eh]
	 Opposite-Spin Energy      =      -0.0270834476864385 [Eh]
	 Correlation Energy        =      -0.0270834739198799 [Eh]
	 Total Energy              =     -10.1189985276783680 [Eh]
	-----------------------------------------------------------
	 ================> DF-SCS-MP2 Energies <================== 
	-----------------------------------------------------------
	 SCS Same-Spin Scale       =       0.3333333333333333 [-]
	 SCS Opposite-Spin Scale   =       1.2000000000000000 [-]
	 SCS Same-Spin Energy      =      -0.0000000087444805 [Eh]
	 SCS Opposite-Spin Energy  =      -0.0325001372237262 [Eh]
	 SCS Correlation Energy    =      -0.0325001459682067 [Eh]
	 SCS Total Energy          =     -10.1244151997266947 [Eh]
	-----------------------------------------------------------


*** tstop() called on kichot at Mon Jun 15 06:35:47 2026
Module time:
	user time   =       0.03 seconds =       0.00 minutes
	system time =       0.00 seconds =       0.00 minutes
	total time  =          0 seconds =       0.00 minutes
Total time:
	user time   =       8.83 seconds =       0.15 minutes
	system time =       0.14 seconds =       0.00 minutes
	total time  =          9 seconds =       0.15 minutes

    Psi4 stopped on: Monday, 15 June 2026 06:35AM
    Psi4 wall time for execution: 0:00:00.24


  //>>>>>>>>>>>>>>>>>>>>>>>>>>>>>>>>>>>//
  //          ManyBody Results         //
  //<<<<<<<<<<<<<<<<<<<<<<<<<<<<<<<<<<<//


   ==> N-Body: Counterpoise Corrected (CP) energies <==

              MC n-Body  Total Energy            Interaction Energy                          N-body Contribution to Interaction Energy
                         [Eh]                    [Eh]                  [kcal/mol]            [Eh]                  [kcal/mol]
              §A  1        N/A                   0.000000000000        0.000000000000        0.000000000000        0.000000000000
     FULL/RTN §A  2        N/A                  -0.000058779751       -0.036884850850       -0.000058779751       -0.036884850850

   MC Legend: §A: "(auto)"


Scratch directory: /scratch/lukasz/psi4/

  //>>>>>>>>>>>>>>>>>>>>>>>>>>>>>>>>>>>//
  //   ManyBody Setup: N-Body Levels 2 //
  //<<<<<<<<<<<<<<<<<<<<<<<<<<<<<<<<<<<//

    Model chemistry "(auto)" (§A):          3
        Number of 1-body computations:      2 (nocp: 0, cp: 2, vmfc_compute: 0)
        Number of 2-body computations:      1 (nocp: 0, cp: 1, vmfc_compute: 0)

    -----------------------------------------------------------------------
          Psi4: An Open-Source Ab Initio Electronic Structure Package
                               Psi4 1.11a1.dev42 

                         Git: Rev {master} 144882d 


    D. G. A. Smith, L. A. Burns, A. C. Simmonett, R. M. Parrish,
    M. C. Schieber, R. Galvelis, P. Kraus, H. Kruse, R. Di Remigio,
    A. Alenaizan, A. M. James, S. Lehtola, J. P. Misiewicz, M. Scheurer,
    R. A. Shaw, J. B. Schriber, Y. Xie, Z. L. Glick, D. A. Sirianni,
    J. S. O'Brien, J. M. Waldrop, A. Kumar, E. G. Hohenstein,
    B. P. Pritchard, B. R. Brooks, H. F. Schaefer III, A. Yu. Sokolov,
    K. Patkowski, A. E. DePrince III, U. Bozkaya, R. A. King,
    F. A. Evangelista, J. M. Turney, T. D. Crawford, C. D. Sherrill,
    J. Chem. Phys. 152(18) 184108 (2020). https://doi.org/10.1063/5.0006002

                            Additional Code Authors
    E. T. Seidl, C. L. Janssen, E. F. Valeev, M. L. Leininger,
    J. F. Gonthier, R. M. Richard, H. R. McAlexander, M. Saitow, X. Wang,
    P. Verma, M. H. Lechner, A. Jiang, S. Behnle, A. G. Heide,
    M. F. Herbst, D. L. Poole, T. Győri, E. C. Mitchell, J. P. Pederson,
    and A. M. Wallace

             Previous Authors, Complete List of Code Contributors,
                       and Citations for Specific Modules
    https://github.com/psi4/psi4/blob/master/codemeta.json
    https://github.com/psi4/psi4/graphs/contributors
    https://psicode.org/psi4manual/master/introduction.html#citing-psifour

    -----------------------------------------------------------------------


    Psi4 started on: Monday, 15 June 2026 06:35AM

    Process ID: 215698
    Host:       kichot
    PSIDATADIR: /opt/psi4/share/psi4
    Memory:     1.9 GiB
    Threads:    1
    Addons:     a̶d̶c̶c̶, a̶m̶b̶i̶t̶, b̶s̶e̶, c̶c̶t̶3̶, c̶f̶o̶u̶r̶, c̶h̶e̶m̶p̶s̶2̶, c̶p̶p̶e̶, d̶d̶x̶,
                d̶f̶t̶d̶3̶, d̶f̶t̶d̶4̶, d̶k̶h̶, e̶c̶p̶i̶n̶t̶, e̶i̶n̶s̶u̶m̶s̶, f̶o̶r̶t̶e̶,
                g̶a̶u̶x̶c̶, g̶c̶p̶, g̶d̶m̶a̶, g̶e̶o̶m̶e̶t̶r̶i̶c̶, g̶p̶u̶_̶d̶f̶c̶c̶,
                i̶n̶t̶e̶g̶r̶a̶t̶o̶r̶x̶x̶, i̶p̶i̶, l̶i̶b̶e̶f̶p̶, m̶d̶i̶, m̶p̶2̶d̶, m̶r̶c̶c̶,
                o̶o̶o̶, o̶p̶e̶n̶f̶e̶r̶m̶i̶o̶n̶p̶s̶i̶4̶, p̶c̶m̶s̶o̶l̶v̶e̶r̶,
                p̶s̶i̶4̶f̶o̶c̶k̶c̶i̶, p̶s̶i̶x̶a̶s̶, p̶y̶e̶i̶n̶s̶u̶m̶s̶, r̶e̶s̶p̶, s̶i̶m̶i̶n̶t̶,
                s̶n̶s̶m̶p̶2̶, v̶2̶r̶d̶m̶_̶c̶a̶s̶s̶c̶f̶

  ==> Input QCSchema <==

--------------------------------------------------------------------------
{'driver': 'energy',
 'extras': {'psiapi': True, 'wfn_qcvars_only': True},
 'id': None,
 'keywords': {'function_kwargs': {}},
 'model': {'basis': 'aug-cc-pvtz', 'method': 'scf'},
 'molecule': {'atom_labels': ['', ''],
              'atomic_numbers': [2, 3],
              'extras': {},
              'fix_com': True,
              'fix_orientation': True,
              'fragment_charges': [0.0, 1.0],
              'fragment_multiplicities': [1, 1],
              'fragments': [[0], [1]],
              'geometry': [0.0, 0.0, -6.617968087453, 0.0, 0.0, 3.7755256025651],
              'mass_numbers': [4, 7],
              'masses': [4.00260325413, 7.0160034366],
              'molecular_charge': 1.0,
              'molecular_multiplicity': 1,
              'name': 'He-Li+ ([1],[0])',
              'provenance': {'creator': 'QCElemental',
                             'routine': 'qcelemental.molparse.from_schema',
                             'version': '0.29.0'},
              'real': [False, True],
              'schema_name': 'qcschema_molecule',
              'schema_version': 2,
              'symbols': ['He', 'Li'],
              'validated': True},
 'protocols': {'stdout': True},
 'provenance': {'creator': 'QCElemental', 'routine': 'qcelemental.models.results', 'version': '0.29.0'},
 'schema_name': 'qcschema_input',
 'schema_version': 1}
--------------------------------------------------------------------------

Scratch directory: /scratch/lukasz/psi4/
   => Libint2 <=

    Primary   basis highest AM E, G, H:  5, 4, 3
    Auxiliary basis highest AM E, G, H:  6, 5, 4
    Onebody   basis highest AM E, G, H:  6, 5, 4
    Solid Harmonics ordering:            Gaussian

*** tstart() called on kichot
*** at Mon Jun 15 06:35:47 2026

   => Loading Basis Set <=

    Name: AUG-CC-PVTZ
    Role: ORBITAL
    Keyword: BASIS
    atoms 1 entry HE         line    62 file /opt/psi4/share/psi4/basis/aug-cc-pvtz.gbs 
    atoms 2 entry LI         line    85 file /opt/psi4/share/psi4/basis/aug-cc-pvtz.gbs 


         ---------------------------------------------------------
                                   SCF
               by Justin Turney, Rob Parrish, Andy Simmonett
                          and Daniel G. A. Smith
                              RHF Reference
                        1 Threads,   1907 MiB Core
         ---------------------------------------------------------

  ==> Geometry <==

    Molecular point group: c2v
    Full point group: C_inf_v

    Geometry (in Bohr), charge = 1, multiplicity = 1:

       Center              X                  Y                   Z               Mass       
    ------------   -----------------  -----------------  -----------------  -----------------
      Gh(HE)          0.000000000000     0.000000000000    -6.617968087453     4.002603254130
         LI           0.000000000000     0.000000000000     3.775525602565     7.016003436600

  Running in c2v symmetry.

  Rotational constants: A = ************  B =      0.21866  C =      0.21866 [cm^-1]
  Rotational constants: A = ************  B =   6555.20329  C =   6555.20329 [MHz]
  Nuclear repulsion =    0.000000000000000

  Charge       = 1
  Multiplicity = 1
  Electrons    = 2
  Nalpha       = 1
  Nbeta        = 1

  ==> Algorithm <==

  SCF Algorithm Type is DF.
  DIIS enabled.
  MOM disabled.
  Fractional occupation disabled.
  Guess Type is SAD.
  Energy threshold   = 1.00e-06
  Density threshold  = 1.00e-06
  Integral threshold = 1.00e-12

  ==> Primary Basis <==

  Basis Set: AUG-CC-PVTZ
    Blend: AUG-CC-PVTZ
    Number of shells: 23
    Number of basis functions: 69
    Number of Cartesian functions: 80
    Spherical Harmonics?: true
    Max angular momentum: 3

   => Loading Basis Set <=

    Name: (AUG-CC-PVTZ AUX)
    Role: JKFIT
    Keyword: DF_BASIS_SCF
    atoms 1 entry HE         line    34 file /opt/psi4/share/psi4/basis/def2-universal-jkfit.gbs 
    atoms 2 entry LI         line    54 file /opt/psi4/share/psi4/basis/def2-universal-jkfit.gbs 

  ==> Integral Setup <==

  DFHelper Memory: AOs need 0.003 GiB; user supplied 1.397 GiB. 
  SCF_SUBTYPE=INCORE selected. In-core MEM_DF algorithm will be used.
  Using in-core AOs.

  ==> MemDFJK: Density-Fitted J/K Matrices <==

    J tasked:                   Yes
    K tasked:                   Yes
    wK tasked:                   No
    OpenMP threads:               1
    Memory [MiB]:              1430
    Algorithm:                 Core
    Schwarz Cutoff:           1E-12
    Mask sparsity (%):       0.0000
    Fitting Condition:        1E-10

   => Auxiliary Basis Set <=

  Basis Set: (AUG-CC-PVTZ AUX)
    Blend: DEF2-UNIVERSAL-JKFIT
    Number of shells: 26
    Number of basis functions: 74
    Number of Cartesian functions: 85
    Spherical Harmonics?: true
    Max angular momentum: 3

  Minimum eigenvalue in the overlap matrix is 1.2638228754E-03.
  Reciprocal condition number of the overlap matrix is 3.5575124630E-04.
    Using symmetric orthogonalization.

  ==> Pre-Iterations <==

  SCF Guess: Superposition of Atomic Densities via on-the-fly atomic UHF (no occupation information).

   -------------------------
    Irrep   Nso     Nmo    
   -------------------------
     A1        30      30 
     A2         7       7 
     B1        16      16 
     B2        16      16 
   -------------------------
    Total      69      69
   -------------------------

  ==> Iterations <==

                           Total Energy        Delta E     RMS |[F,P]|

   @DF-RHF iter SAD:    -7.27444409246238   -7.27444e+00   0.00000e+00 
   @DF-RHF iter   1:    -7.23638070823507    3.80634e-02   6.04064e-05 DIIS
   @DF-RHF iter   2:    -7.23638224907364   -1.54084e-06   5.21250e-06 DIIS
   @DF-RHF iter   3:    -7.23638226404402   -1.49704e-08   2.49933e-07 DIIS
  Energy and wave function converged.


  ==> Post-Iterations <==

    Orbital Energies [Eh]
    ---------------------

    Doubly Occupied:                                                      

       1A1    -2.792357  

    Virtual:                                                              

       2A1    -0.196294     3A1    -0.128594     1B2    -0.128593  
       1B1    -0.128593     4A1    -0.073545     5A1    -0.056337  
       2B2    -0.056332     2B1    -0.056332     6A1    -0.037013  
       3B2    -0.031291     3B1    -0.031291     7A1    -0.031246  
       1A2    -0.031246     8A1    -0.003808     4B2    -0.003138  
       4B1    -0.003138     9A1     0.008865    10A1     0.020307  
       5B2     0.127305     5B1     0.127305    11A1     0.127822  
       2A2     0.127822     6B1     0.127822     6B2     0.127822  
      12A1     0.128419     7B2     0.135585     7B1     0.135585  
      13A1     0.135924     3A2     0.135924    14A1     0.153189  
       8B1     0.245506     8B2     0.245506    15A1     0.246067  
      16A1     0.349750     9B2     0.379870     9B1     0.379870  
      17A1     0.424412    18A1     0.533984     4A2     0.533984  
      10B1     0.533986    10B2     0.533986    11B2     0.535891  
      11B1     0.535891    19A1     0.558182     5A2     0.572143  
      20A1     0.572143    12B1     0.573565    12B2     0.573565  
      21A1     0.594757     6A2     1.475392    22A1     1.475392  
      13B2     1.475841    13B1     1.475841    23A1     1.479686  
      24A1     1.655255    14B2     2.190735    14B1     2.190735  
      25A1     2.225116    26A1     2.399443    27A1     7.544424  
       7A2     7.544424    15B1     7.544724    15B2     7.544724  
      28A1     7.546544    29A1     9.029874    16B2     9.625686  
      16B1     9.625686    30A1     9.650978  

    Final Occupation by Irrep:
             A1    A2    B1    B2 
    DOCC [     1,    0,    0,    0 ]
    NA   [     1,    0,    0,    0 ]
    NB   [     1,    0,    0,    0 ]

  @DF-RHF Final Energy:    -7.23638226404402

   => Energetics <=

    Nuclear Repulsion Energy =              0.0000000000000000
    One-Electron Energy =                  -8.8880493054342953
    Two-Electron Energy =                   1.6516670413902750
    Total Energy =                         -7.2363822640440203

Computation Completed


Properties will be evaluated at   0.000000,   0.000000,   0.000000 [a0]

Properties computed using the SCF density matrix


 Multipole Moments:

 ------------------------------------------------------------------------------------
     Multipole            Electronic (a.u.)      Nuclear  (a.u.)        Total (a.u.)
 ------------------------------------------------------------------------------------

 L = 1.  Multiply by 2.5417464519 to convert [e a0] to [Debye]
 Dipole X            :          0.0000000            0.0000000            0.0000000
 Dipole Y            :          0.0000000            0.0000000            0.0000000
 Dipole Z            :         -7.5510532           11.3265768            3.7755236
 Magnitude           :                                                    3.7755236

 ------------------------------------------------------------------------------------

*** tstop() called on kichot at Mon Jun 15 06:35:48 2026
Module time:
	user time   =       0.21 seconds =       0.00 minutes
	system time =       0.01 seconds =       0.00 minutes
	total time  =          1 seconds =       0.02 minutes
Total time:
	user time   =       9.15 seconds =       0.15 minutes
	system time =       0.16 seconds =       0.00 minutes
	total time  =         10 seconds =       0.17 minutes

    Psi4 stopped on: Monday, 15 June 2026 06:35AM
    Psi4 wall time for execution: 0:00:00.26


    -----------------------------------------------------------------------
          Psi4: An Open-Source Ab Initio Electronic Structure Package
                               Psi4 1.11a1.dev42 

                         Git: Rev {master} 144882d 


    D. G. A. Smith, L. A. Burns, A. C. Simmonett, R. M. Parrish,
    M. C. Schieber, R. Galvelis, P. Kraus, H. Kruse, R. Di Remigio,
    A. Alenaizan, A. M. James, S. Lehtola, J. P. Misiewicz, M. Scheurer,
    R. A. Shaw, J. B. Schriber, Y. Xie, Z. L. Glick, D. A. Sirianni,
    J. S. O'Brien, J. M. Waldrop, A. Kumar, E. G. Hohenstein,
    B. P. Pritchard, B. R. Brooks, H. F. Schaefer III, A. Yu. Sokolov,
    K. Patkowski, A. E. DePrince III, U. Bozkaya, R. A. King,
    F. A. Evangelista, J. M. Turney, T. D. Crawford, C. D. Sherrill,
    J. Chem. Phys. 152(18) 184108 (2020). https://doi.org/10.1063/5.0006002

                            Additional Code Authors
    E. T. Seidl, C. L. Janssen, E. F. Valeev, M. L. Leininger,
    J. F. Gonthier, R. M. Richard, H. R. McAlexander, M. Saitow, X. Wang,
    P. Verma, M. H. Lechner, A. Jiang, S. Behnle, A. G. Heide,
    M. F. Herbst, D. L. Poole, T. Győri, E. C. Mitchell, J. P. Pederson,
    and A. M. Wallace

             Previous Authors, Complete List of Code Contributors,
                       and Citations for Specific Modules
    https://github.com/psi4/psi4/blob/master/codemeta.json
    https://github.com/psi4/psi4/graphs/contributors
    https://psicode.org/psi4manual/master/introduction.html#citing-psifour

    -----------------------------------------------------------------------


    Psi4 started on: Monday, 15 June 2026 06:35AM

    Process ID: 215698
    Host:       kichot
    PSIDATADIR: /opt/psi4/share/psi4
    Memory:     1.9 GiB
    Threads:    1
    Addons:     a̶d̶c̶c̶, a̶m̶b̶i̶t̶, b̶s̶e̶, c̶c̶t̶3̶, c̶f̶o̶u̶r̶, c̶h̶e̶m̶p̶s̶2̶, c̶p̶p̶e̶, d̶d̶x̶,
                d̶f̶t̶d̶3̶, d̶f̶t̶d̶4̶, d̶k̶h̶, e̶c̶p̶i̶n̶t̶, e̶i̶n̶s̶u̶m̶s̶, f̶o̶r̶t̶e̶,
                g̶a̶u̶x̶c̶, g̶c̶p̶, g̶d̶m̶a̶, g̶e̶o̶m̶e̶t̶r̶i̶c̶, g̶p̶u̶_̶d̶f̶c̶c̶,
                i̶n̶t̶e̶g̶r̶a̶t̶o̶r̶x̶x̶, i̶p̶i̶, l̶i̶b̶e̶f̶p̶, m̶d̶i̶, m̶p̶2̶d̶, m̶r̶c̶c̶,
                o̶o̶o̶, o̶p̶e̶n̶f̶e̶r̶m̶i̶o̶n̶p̶s̶i̶4̶, p̶c̶m̶s̶o̶l̶v̶e̶r̶,
                p̶s̶i̶4̶f̶o̶c̶k̶c̶i̶, p̶s̶i̶x̶a̶s̶, p̶y̶e̶i̶n̶s̶u̶m̶s̶, r̶e̶s̶p̶, s̶i̶m̶i̶n̶t̶,
                s̶n̶s̶m̶p̶2̶, v̶2̶r̶d̶m̶_̶c̶a̶s̶s̶c̶f̶

  ==> Input QCSchema <==

--------------------------------------------------------------------------
{'driver': 'energy',
 'extras': {'psiapi': True, 'wfn_qcvars_only': True},
 'id': None,
 'keywords': {'function_kwargs': {}},
 'model': {'basis': 'aug-cc-pvtz', 'method': 'scf'},
 'molecule': {'atom_labels': ['', ''],
              'atomic_numbers': [2, 3],
              'extras': {},
              'fix_com': True,
              'fix_orientation': True,
              'fragment_charges': [0.0, 0.0],
              'fragment_multiplicities': [1, 1],
              'fragments': [[0], [1]],
              'geometry': [0.0, 0.0, -6.617968087453, 0.0, 0.0, 3.7755256025651],
              'mass_numbers': [4, 7],
              'masses': [4.00260325413, 7.0160034366],
              'molecular_charge': 0.0,
              'molecular_multiplicity': 1,
              'name': 'He-Li+ ([0],[1])',
              'provenance': {'creator': 'QCElemental',
                             'routine': 'qcelemental.molparse.from_schema',
                             'version': '0.29.0'},
              'real': [True, False],
              'schema_name': 'qcschema_molecule',
              'schema_version': 2,
              'symbols': ['He', 'Li'],
              'validated': True},
 'protocols': {'stdout': True},
 'provenance': {'creator': 'QCElemental', 'routine': 'qcelemental.models.results', 'version': '0.29.0'},
 'schema_name': 'qcschema_input',
 'schema_version': 1}
--------------------------------------------------------------------------

Scratch directory: /scratch/lukasz/psi4/
   => Libint2 <=

    Primary   basis highest AM E, G, H:  5, 4, 3
    Auxiliary basis highest AM E, G, H:  6, 5, 4
    Onebody   basis highest AM E, G, H:  6, 5, 4
    Solid Harmonics ordering:            Gaussian

*** tstart() called on kichot
*** at Mon Jun 15 06:35:48 2026

   => Loading Basis Set <=

    Name: AUG-CC-PVTZ
    Role: ORBITAL
    Keyword: BASIS
    atoms 1 entry HE         line    62 file /opt/psi4/share/psi4/basis/aug-cc-pvtz.gbs 
    atoms 2 entry LI         line    85 file /opt/psi4/share/psi4/basis/aug-cc-pvtz.gbs 


         ---------------------------------------------------------
                                   SCF
               by Justin Turney, Rob Parrish, Andy Simmonett
                          and Daniel G. A. Smith
                              RHF Reference
                        1 Threads,   1907 MiB Core
         ---------------------------------------------------------

  ==> Geometry <==

    Molecular point group: c2v
    Full point group: C_inf_v

    Geometry (in Bohr), charge = 0, multiplicity = 1:

       Center              X                  Y                   Z               Mass       
    ------------   -----------------  -----------------  -----------------  -----------------
         HE           0.000000000000     0.000000000000    -6.617968087453     4.002603254130
      Gh(LI)          0.000000000000     0.000000000000     3.775525602565     7.016003436600

  Running in c2v symmetry.

  Rotational constants: A = ************  B =      0.21866  C =      0.21866 [cm^-1]
  Rotational constants: A = ************  B =   6555.20329  C =   6555.20329 [MHz]
  Nuclear repulsion =    0.000000000000000

  Charge       = 0
  Multiplicity = 1
  Electrons    = 2
  Nalpha       = 1
  Nbeta        = 1

  ==> Algorithm <==

  SCF Algorithm Type is DF.
  DIIS enabled.
  MOM disabled.
  Fractional occupation disabled.
  Guess Type is SAD.
  Energy threshold   = 1.00e-06
  Density threshold  = 1.00e-06
  Integral threshold = 1.00e-12

  ==> Primary Basis <==

  Basis Set: AUG-CC-PVTZ
    Blend: AUG-CC-PVTZ
    Number of shells: 23
    Number of basis functions: 69
    Number of Cartesian functions: 80
    Spherical Harmonics?: true
    Max angular momentum: 3

   => Loading Basis Set <=

    Name: (AUG-CC-PVTZ AUX)
    Role: JKFIT
    Keyword: DF_BASIS_SCF
    atoms 1 entry HE         line    34 file /opt/psi4/share/psi4/basis/def2-universal-jkfit.gbs 
    atoms 2 entry LI         line    54 file /opt/psi4/share/psi4/basis/def2-universal-jkfit.gbs 

  ==> Integral Setup <==

  DFHelper Memory: AOs need 0.003 GiB; user supplied 1.397 GiB. 
  SCF_SUBTYPE=INCORE selected. In-core MEM_DF algorithm will be used.
  Using in-core AOs.

  ==> MemDFJK: Density-Fitted J/K Matrices <==

    J tasked:                   Yes
    K tasked:                   Yes
    wK tasked:                   No
    OpenMP threads:               1
    Memory [MiB]:              1430
    Algorithm:                 Core
    Schwarz Cutoff:           1E-12
    Mask sparsity (%):       0.0000
    Fitting Condition:        1E-10

   => Auxiliary Basis Set <=

  Basis Set: (AUG-CC-PVTZ AUX)
    Blend: DEF2-UNIVERSAL-JKFIT
    Number of shells: 26
    Number of basis functions: 74
    Number of Cartesian functions: 85
    Spherical Harmonics?: true
    Max angular momentum: 3

  Minimum eigenvalue in the overlap matrix is 1.2638228754E-03.
  Reciprocal condition number of the overlap matrix is 3.5575124630E-04.
    Using symmetric orthogonalization.

  ==> Pre-Iterations <==

  SCF Guess: Superposition of Atomic Densities via on-the-fly atomic UHF (no occupation information).

   -------------------------
    Irrep   Nso     Nmo    
   -------------------------
     A1        30      30 
     A2         7       7 
     B1        16      16 
     B2        16      16 
   -------------------------
    Total      69      69
   -------------------------

  ==> Iterations <==

                           Total Energy        Delta E     RMS |[F,P]|

   @DF-RHF iter SAD:    -2.86120554929135   -2.86121e+00   0.00000e+00 
   @DF-RHF iter   1:    -2.86120627218823   -7.22897e-07   3.11084e-06 DIIS
   @DF-RHF iter   2:    -2.86120628558685   -1.33986e-08   4.77177e-07 DIIS
  Energy and wave function converged.


  ==> Post-Iterations <==

    Orbital Energies [Eh]
    ---------------------

    Doubly Occupied:                                                      

       1A1    -0.917872  

    Virtual:                                                              

       2A1     0.010670     1B2     0.019082     1B1     0.019082  
       3A1     0.020699     4A1     0.058104     2B2     0.070589  
       2B1     0.070589     5A1     0.070963     6A1     0.116315  
       3B2     0.121089     3B1     0.121089     7A1     0.121366  
       1A2     0.121366     8A1     0.158056     4B2     0.211647  
       4B1     0.211647     9A1     0.213173    10A1     0.216723  
      11A1     0.304431     5B1     0.305984     5B2     0.305984  
      12A1     0.307413     2A2     0.307413     6B1     0.307430  
       6B2     0.307430     7B2     0.352546     7B1     0.352546  
      13A1     0.354449     3A2     0.354449    14A1     0.362080  
       8B2     0.437427     8B1     0.437427    15A1     0.496175  
      16A1     0.810795     4A2     0.810795     9B1     0.810797  
       9B2     0.810797    10B1     0.811605    10B2     0.811605  
      17A1     0.824512    11B2     0.829742    11B1     0.829742  
      18A1     0.833916    19A1     0.875207    20A1     0.945276  
       5A2     0.945276    12B1     0.945943    12B2     0.945943  
      21A1     0.956783    22A1     1.252781    23A1     1.520877  
       6A2     1.520877    13B2     1.522911    13B1     1.522911  
      24A1     1.528151    14B1     1.966775    14B2     1.966775  
      25A1     2.007308    26A1     4.851632    27A1     7.123641  
       7A2     7.123641    15B2     7.124372    15B1     7.124372  
      28A1     7.126364    16B2     8.224910    16B1     8.224910  
      29A1     8.250749    30A1     9.827426  

    Final Occupation by Irrep:
             A1    A2    B1    B2 
    DOCC [     1,    0,    0,    0 ]
    NA   [     1,    0,    0,    0 ]
    NB   [     1,    0,    0,    0 ]

  @DF-RHF Final Energy:    -2.86120628558685

   => Energetics <=

    Nuclear Repulsion Energy =              0.0000000000000000
    One-Electron Energy =                  -3.8866669827700502
    Two-Electron Energy =                   1.0254606971831974
    Total Energy =                         -2.8612062855868530

Computation Completed


Properties will be evaluated at   0.000000,   0.000000,   0.000000 [a0]

Properties computed using the SCF density matrix


 Multipole Moments:

 ------------------------------------------------------------------------------------
     Multipole            Electronic (a.u.)      Nuclear  (a.u.)        Total (a.u.)
 ------------------------------------------------------------------------------------

 L = 1.  Multiply by 2.5417464519 to convert [e a0] to [Debye]
 Dipole X            :          0.0000000            0.0000000            0.0000000
 Dipole Y            :          0.0000000            0.0000000            0.0000000
 Dipole Z            :         13.2358834          -13.2359362           -0.0000528
 Magnitude           :                                                    0.0000528

 ------------------------------------------------------------------------------------

*** tstop() called on kichot at Mon Jun 15 06:35:48 2026
Module time:
	user time   =       0.18 seconds =       0.00 minutes
	system time =       0.01 seconds =       0.00 minutes
	total time  =          0 seconds =       0.00 minutes
Total time:
	user time   =       9.37 seconds =       0.16 minutes
	system time =       0.17 seconds =       0.00 minutes
	total time  =         10 seconds =       0.17 minutes

    Psi4 stopped on: Monday, 15 June 2026 06:35AM
    Psi4 wall time for execution: 0:00:00.22


    -----------------------------------------------------------------------
          Psi4: An Open-Source Ab Initio Electronic Structure Package
                               Psi4 1.11a1.dev42 

                         Git: Rev {master} 144882d 


    D. G. A. Smith, L. A. Burns, A. C. Simmonett, R. M. Parrish,
    M. C. Schieber, R. Galvelis, P. Kraus, H. Kruse, R. Di Remigio,
    A. Alenaizan, A. M. James, S. Lehtola, J. P. Misiewicz, M. Scheurer,
    R. A. Shaw, J. B. Schriber, Y. Xie, Z. L. Glick, D. A. Sirianni,
    J. S. O'Brien, J. M. Waldrop, A. Kumar, E. G. Hohenstein,
    B. P. Pritchard, B. R. Brooks, H. F. Schaefer III, A. Yu. Sokolov,
    K. Patkowski, A. E. DePrince III, U. Bozkaya, R. A. King,
    F. A. Evangelista, J. M. Turney, T. D. Crawford, C. D. Sherrill,
    J. Chem. Phys. 152(18) 184108 (2020). https://doi.org/10.1063/5.0006002

                            Additional Code Authors
    E. T. Seidl, C. L. Janssen, E. F. Valeev, M. L. Leininger,
    J. F. Gonthier, R. M. Richard, H. R. McAlexander, M. Saitow, X. Wang,
    P. Verma, M. H. Lechner, A. Jiang, S. Behnle, A. G. Heide,
    M. F. Herbst, D. L. Poole, T. Győri, E. C. Mitchell, J. P. Pederson,
    and A. M. Wallace

             Previous Authors, Complete List of Code Contributors,
                       and Citations for Specific Modules
    https://github.com/psi4/psi4/blob/master/codemeta.json
    https://github.com/psi4/psi4/graphs/contributors
    https://psicode.org/psi4manual/master/introduction.html#citing-psifour

    -----------------------------------------------------------------------


    Psi4 started on: Monday, 15 June 2026 06:35AM

    Process ID: 215698
    Host:       kichot
    PSIDATADIR: /opt/psi4/share/psi4
    Memory:     1.9 GiB
    Threads:    1
    Addons:     a̶d̶c̶c̶, a̶m̶b̶i̶t̶, b̶s̶e̶, c̶c̶t̶3̶, c̶f̶o̶u̶r̶, c̶h̶e̶m̶p̶s̶2̶, c̶p̶p̶e̶, d̶d̶x̶,
                d̶f̶t̶d̶3̶, d̶f̶t̶d̶4̶, d̶k̶h̶, e̶c̶p̶i̶n̶t̶, e̶i̶n̶s̶u̶m̶s̶, f̶o̶r̶t̶e̶,
                g̶a̶u̶x̶c̶, g̶c̶p̶, g̶d̶m̶a̶, g̶e̶o̶m̶e̶t̶r̶i̶c̶, g̶p̶u̶_̶d̶f̶c̶c̶,
                i̶n̶t̶e̶g̶r̶a̶t̶o̶r̶x̶x̶, i̶p̶i̶, l̶i̶b̶e̶f̶p̶, m̶d̶i̶, m̶p̶2̶d̶, m̶r̶c̶c̶,
                o̶o̶o̶, o̶p̶e̶n̶f̶e̶r̶m̶i̶o̶n̶p̶s̶i̶4̶, p̶c̶m̶s̶o̶l̶v̶e̶r̶,
                p̶s̶i̶4̶f̶o̶c̶k̶c̶i̶, p̶s̶i̶x̶a̶s̶, p̶y̶e̶i̶n̶s̶u̶m̶s̶, r̶e̶s̶p̶, s̶i̶m̶i̶n̶t̶,
                s̶n̶s̶m̶p̶2̶, v̶2̶r̶d̶m̶_̶c̶a̶s̶s̶c̶f̶

  ==> Input QCSchema <==

--------------------------------------------------------------------------
{'driver': 'energy',
 'extras': {'psiapi': True, 'wfn_qcvars_only': True},
 'id': None,
 'keywords': {'function_kwargs': {}},
 'model': {'basis': 'aug-cc-pvtz', 'method': 'scf'},
 'molecule': {'atom_labels': ['', ''],
              'atomic_numbers': [2, 3],
              'extras': {},
              'fix_com': True,
              'fix_orientation': True,
              'fragment_charges': [0.0, 1.0],
              'fragment_multiplicities': [1, 1],
              'fragments': [[0], [1]],
              'geometry': [0.0, 0.0, -6.617968087453, 0.0, 0.0, 3.7755256025651],
              'mass_numbers': [4, 7],
              'masses': [4.00260325413, 7.0160034366],
              'molecular_charge': 1.0,
              'molecular_multiplicity': 1,
              'name': 'He-Li+ ([0, 1],[])',
              'provenance': {'creator': 'QCElemental',
                             'routine': 'qcelemental.molparse.from_schema',
                             'version': '0.29.0'},
              'real': [True, True],
              'schema_name': 'qcschema_molecule',
              'schema_version': 2,
              'symbols': ['He', 'Li'],
              'validated': True},
 'protocols': {'stdout': True},
 'provenance': {'creator': 'QCElemental', 'routine': 'qcelemental.models.results', 'version': '0.29.0'},
 'schema_name': 'qcschema_input',
 'schema_version': 1}
--------------------------------------------------------------------------

Scratch directory: /scratch/lukasz/psi4/
   => Libint2 <=

    Primary   basis highest AM E, G, H:  5, 4, 3
    Auxiliary basis highest AM E, G, H:  6, 5, 4
    Onebody   basis highest AM E, G, H:  6, 5, 4
    Solid Harmonics ordering:            Gaussian

*** tstart() called on kichot
*** at Mon Jun 15 06:35:48 2026

   => Loading Basis Set <=

    Name: AUG-CC-PVTZ
    Role: ORBITAL
    Keyword: BASIS
    atoms 1 entry HE         line    62 file /opt/psi4/share/psi4/basis/aug-cc-pvtz.gbs 
    atoms 2 entry LI         line    85 file /opt/psi4/share/psi4/basis/aug-cc-pvtz.gbs 


         ---------------------------------------------------------
                                   SCF
               by Justin Turney, Rob Parrish, Andy Simmonett
                          and Daniel G. A. Smith
                              RHF Reference
                        1 Threads,   1907 MiB Core
         ---------------------------------------------------------

  ==> Geometry <==

    Molecular point group: c2v
    Full point group: C_inf_v

    Geometry (in Bohr), charge = 1, multiplicity = 1:

       Center              X                  Y                   Z               Mass       
    ------------   -----------------  -----------------  -----------------  -----------------
         HE           0.000000000000     0.000000000000    -6.617968087453     4.002603254130
         LI           0.000000000000     0.000000000000     3.775525602565     7.016003436600

  Running in c2v symmetry.

  Rotational constants: A = ************  B =      0.21866  C =      0.21866 [cm^-1]
  Rotational constants: A = ************  B =   6555.20329  C =   6555.20329 [MHz]
  Nuclear repulsion =    0.577284229821816

  Charge       = 1
  Multiplicity = 1
  Electrons    = 4
  Nalpha       = 2
  Nbeta        = 2

  ==> Algorithm <==

  SCF Algorithm Type is DF.
  DIIS enabled.
  MOM disabled.
  Fractional occupation disabled.
  Guess Type is SAD.
  Energy threshold   = 1.00e-06
  Density threshold  = 1.00e-06
  Integral threshold = 1.00e-12

  ==> Primary Basis <==

  Basis Set: AUG-CC-PVTZ
    Blend: AUG-CC-PVTZ
    Number of shells: 23
    Number of basis functions: 69
    Number of Cartesian functions: 80
    Spherical Harmonics?: true
    Max angular momentum: 3

   => Loading Basis Set <=

    Name: (AUG-CC-PVTZ AUX)
    Role: JKFIT
    Keyword: DF_BASIS_SCF
    atoms 1 entry HE         line    34 file /opt/psi4/share/psi4/basis/def2-universal-jkfit.gbs 
    atoms 2 entry LI         line    54 file /opt/psi4/share/psi4/basis/def2-universal-jkfit.gbs 

  ==> Integral Setup <==

  DFHelper Memory: AOs need 0.003 GiB; user supplied 1.397 GiB. 
  SCF_SUBTYPE=INCORE selected. In-core MEM_DF algorithm will be used.
  Using in-core AOs.

  ==> MemDFJK: Density-Fitted J/K Matrices <==

    J tasked:                   Yes
    K tasked:                   Yes
    wK tasked:                   No
    OpenMP threads:               1
    Memory [MiB]:              1430
    Algorithm:                 Core
    Schwarz Cutoff:           1E-12
    Mask sparsity (%):       0.0000
    Fitting Condition:        1E-10

   => Auxiliary Basis Set <=

  Basis Set: (AUG-CC-PVTZ AUX)
    Blend: DEF2-UNIVERSAL-JKFIT
    Number of shells: 26
    Number of basis functions: 74
    Number of Cartesian functions: 85
    Spherical Harmonics?: true
    Max angular momentum: 3

  Minimum eigenvalue in the overlap matrix is 1.2638228754E-03.
  Reciprocal condition number of the overlap matrix is 3.5575124630E-04.
    Using symmetric orthogonalization.

  ==> Pre-Iterations <==

  SCF Guess: Superposition of Atomic Densities via on-the-fly atomic UHF (no occupation information).

   -------------------------
    Irrep   Nso     Nmo    
   -------------------------
     A1        30      30 
     A2         7       7 
     B1        16      16 
     B2        16      16 
   -------------------------
    Total      69      69
   -------------------------

  ==> Iterations <==

                           Total Energy        Delta E     RMS |[F,P]|

   @DF-RHF iter SAD:   -10.13959140480598   -1.01396e+01   0.00000e+00 
   @DF-RHF iter   1:   -10.09749705467781    4.20944e-02   3.27746e-04 ADIIS/DIIS
   @DF-RHF iter   2:   -10.09763868222306   -1.41628e-04   7.62079e-05 DIIS
   @DF-RHF iter   3:   -10.09764681205531   -8.12983e-06   5.50830e-06 DIIS
   @DF-RHF iter   4:   -10.09764684933066   -3.72753e-08   4.70681e-07 DIIS
  Energy and wave function converged.


  ==> Post-Iterations <==

    Orbital Energies [Eh]
    ---------------------

    Doubly Occupied:                                                      

       1A1    -2.792241     2A1    -1.014142  

    Virtual:                                                              

       3A1    -0.196149     1B2    -0.128489     1B1    -0.128489  
       4A1    -0.128102     5A1    -0.072750     2B1    -0.056355  
       2B2    -0.056355     6A1    -0.054720     3B2    -0.031241  
       3B1    -0.031241     7A1    -0.031138     1A2    -0.031138  
       8A1    -0.029630     4B2    -0.003109     4B1    -0.003109  
       9A1    -0.002795    10A1     0.009713    11A1     0.056793  
       5B2     0.127310     5B1     0.127310     6B1     0.127946  
       6B2     0.127946    12A1     0.127949     2A2     0.127949  
      13A1     0.129546     7B2     0.135521     7B1     0.135521  
      14A1     0.136009     3A2     0.136009    15A1     0.152746  
       8B2     0.245541     8B1     0.245541    16A1     0.247135  
       9B2     0.339080     9B1     0.339080    17A1     0.376630  
      10B1     0.534082    10B2     0.534082    18A1     0.534092  
       4A2     0.534092    11B2     0.535540    11B1     0.535540  
      19A1     0.554296     5A2     0.572257    20A1     0.572257  
      12B1     0.573436    12B2     0.573436    21A1     0.591777  
      22A1     0.779234     6A2     1.425634    23A1     1.425634  
      13B2     1.426100    13B1     1.426100    24A1     1.429993  
      14B2     1.870968    14B1     1.870968    25A1     1.907669  
      26A1     2.397518    27A1     4.755758    28A1     7.027642  
       7A2     7.027642    15B2     7.027974    15B1     7.027974  
      29A1     7.029800    16B2     8.128780    16B1     8.128780  
      30A1     8.154427  

    Final Occupation by Irrep:
             A1    A2    B1    B2 
    DOCC [     2,    0,    0,    0 ]
    NA   [     2,    0,    0,    0 ]
    NB   [     2,    0,    0,    0 ]

  @DF-RHF Final Energy:   -10.09764684933066

   => Energetics <=

    Nuclear Repulsion Energy =              0.5772842298218156
    One-Electron Energy =                 -13.7370967373860697
    Two-Electron Energy =                   3.0621656582335945
    Total Energy =                        -10.0976468493306601

Computation Completed


Properties will be evaluated at   0.000000,   0.000000,   0.000000 [a0]

Properties computed using the SCF density matrix


 Multipole Moments:

 ------------------------------------------------------------------------------------
     Multipole            Electronic (a.u.)      Nuclear  (a.u.)        Total (a.u.)
 ------------------------------------------------------------------------------------

 L = 1.  Multiply by 2.5417464519 to convert [e a0] to [Debye]
 Dipole X            :          0.0000000            0.0000000            0.0000000
 Dipole Y            :          0.0000000            0.0000000            0.0000000
 Dipole Z            :          5.6725016           -1.9093594            3.7631423
 Magnitude           :                                                    3.7631423

 ------------------------------------------------------------------------------------

*** tstop() called on kichot at Mon Jun 15 06:35:48 2026
Module time:
	user time   =       0.24 seconds =       0.00 minutes
	system time =       0.02 seconds =       0.00 minutes
	total time  =          0 seconds =       0.00 minutes
Total time:
	user time   =       9.65 seconds =       0.16 minutes
	system time =       0.19 seconds =       0.00 minutes
	total time  =         10 seconds =       0.17 minutes

    Psi4 stopped on: Monday, 15 June 2026 06:35AM
    Psi4 wall time for execution: 0:00:00.28


  //>>>>>>>>>>>>>>>>>>>>>>>>>>>>>>>>>>>//
  //          ManyBody Results         //
  //<<<<<<<<<<<<<<<<<<<<<<<<<<<<<<<<<<<//


   ==> N-Body: Counterpoise Corrected (CP) energies <==

              MC n-Body  Total Energy            Interaction Energy                          N-body Contribution to Interaction Energy
                         [Eh]                    [Eh]                  [kcal/mol]            [Eh]                  [kcal/mol]
              §A  1        N/A                   0.000000000000        0.000000000000        0.000000000000        0.000000000000
     FULL/RTN §A  2        N/A                  -0.000058299700       -0.036583613935       -0.000058299700       -0.036583613935

   MC Legend: §A: "(auto)"


Scratch directory: /scratch/lukasz/psi4/

  //>>>>>>>>>>>>>>>>>>>>>>>>>>>>>>>>>>>//
  //   ManyBody Setup: N-Body Levels 2 //
  //<<<<<<<<<<<<<<<<<<<<<<<<<<<<<<<<<<<//

    Model chemistry "(auto)" (§A):          3
        Number of 1-body computations:      2 (nocp: 0, cp: 2, vmfc_compute: 0)
        Number of 2-body computations:      1 (nocp: 0, cp: 1, vmfc_compute: 0)

    -----------------------------------------------------------------------
          Psi4: An Open-Source Ab Initio Electronic Structure Package
                               Psi4 1.11a1.dev42 

                         Git: Rev {master} 144882d 


    D. G. A. Smith, L. A. Burns, A. C. Simmonett, R. M. Parrish,
    M. C. Schieber, R. Galvelis, P. Kraus, H. Kruse, R. Di Remigio,
    A. Alenaizan, A. M. James, S. Lehtola, J. P. Misiewicz, M. Scheurer,
    R. A. Shaw, J. B. Schriber, Y. Xie, Z. L. Glick, D. A. Sirianni,
    J. S. O'Brien, J. M. Waldrop, A. Kumar, E. G. Hohenstein,
    B. P. Pritchard, B. R. Brooks, H. F. Schaefer III, A. Yu. Sokolov,
    K. Patkowski, A. E. DePrince III, U. Bozkaya, R. A. King,
    F. A. Evangelista, J. M. Turney, T. D. Crawford, C. D. Sherrill,
    J. Chem. Phys. 152(18) 184108 (2020). https://doi.org/10.1063/5.0006002

                            Additional Code Authors
    E. T. Seidl, C. L. Janssen, E. F. Valeev, M. L. Leininger,
    J. F. Gonthier, R. M. Richard, H. R. McAlexander, M. Saitow, X. Wang,
    P. Verma, M. H. Lechner, A. Jiang, S. Behnle, A. G. Heide,
    M. F. Herbst, D. L. Poole, T. Győri, E. C. Mitchell, J. P. Pederson,
    and A. M. Wallace

             Previous Authors, Complete List of Code Contributors,
                       and Citations for Specific Modules
    https://github.com/psi4/psi4/blob/master/codemeta.json
    https://github.com/psi4/psi4/graphs/contributors
    https://psicode.org/psi4manual/master/introduction.html#citing-psifour

    -----------------------------------------------------------------------


    Psi4 started on: Monday, 15 June 2026 06:35AM

    Process ID: 215698
    Host:       kichot
    PSIDATADIR: /opt/psi4/share/psi4
    Memory:     1.9 GiB
    Threads:    1
    Addons:     a̶d̶c̶c̶, a̶m̶b̶i̶t̶, b̶s̶e̶, c̶c̶t̶3̶, c̶f̶o̶u̶r̶, c̶h̶e̶m̶p̶s̶2̶, c̶p̶p̶e̶, d̶d̶x̶,
                d̶f̶t̶d̶3̶, d̶f̶t̶d̶4̶, d̶k̶h̶, e̶c̶p̶i̶n̶t̶, e̶i̶n̶s̶u̶m̶s̶, f̶o̶r̶t̶e̶,
                g̶a̶u̶x̶c̶, g̶c̶p̶, g̶d̶m̶a̶, g̶e̶o̶m̶e̶t̶r̶i̶c̶, g̶p̶u̶_̶d̶f̶c̶c̶,
                i̶n̶t̶e̶g̶r̶a̶t̶o̶r̶x̶x̶, i̶p̶i̶, l̶i̶b̶e̶f̶p̶, m̶d̶i̶, m̶p̶2̶d̶, m̶r̶c̶c̶,
                o̶o̶o̶, o̶p̶e̶n̶f̶e̶r̶m̶i̶o̶n̶p̶s̶i̶4̶, p̶c̶m̶s̶o̶l̶v̶e̶r̶,
                p̶s̶i̶4̶f̶o̶c̶k̶c̶i̶, p̶s̶i̶x̶a̶s̶, p̶y̶e̶i̶n̶s̶u̶m̶s̶, r̶e̶s̶p̶, s̶i̶m̶i̶n̶t̶,
                s̶n̶s̶m̶p̶2̶, v̶2̶r̶d̶m̶_̶c̶a̶s̶s̶c̶f̶

  ==> Input QCSchema <==

--------------------------------------------------------------------------
{'driver': 'energy',
 'extras': {'psiapi': True, 'wfn_qcvars_only': True},
 'id': None,
 'keywords': {'function_kwargs': {}},
 'model': {'basis': 'aug-cc-pvtz', 'method': 'mp2'},
 'molecule': {'atom_labels': ['', ''],
              'atomic_numbers': [2, 3],
              'extras': {},
              'fix_com': True,
              'fix_orientation': True,
              'fragment_charges': [0.0, 1.0],
              'fragment_multiplicities': [1, 1],
              'fragments': [[0], [1]],
              'geometry': [0.0, 0.0, -6.617968087453, 0.0, 0.0, 3.7755256025651],
              'mass_numbers': [4, 7],
              'masses': [4.00260325413, 7.0160034366],
              'molecular_charge': 1.0,
              'molecular_multiplicity': 1,
              'name': 'He-Li+ ([1],[0])',
              'provenance': {'creator': 'QCElemental',
                             'routine': 'qcelemental.molparse.from_schema',
                             'version': '0.29.0'},
              'real': [False, True],
              'schema_name': 'qcschema_molecule',
              'schema_version': 2,
              'symbols': ['He', 'Li'],
              'validated': True},
 'protocols': {'stdout': True},
 'provenance': {'creator': 'QCElemental', 'routine': 'qcelemental.models.results', 'version': '0.29.0'},
 'schema_name': 'qcschema_input',
 'schema_version': 1}
--------------------------------------------------------------------------

Scratch directory: /scratch/lukasz/psi4/
    SCF Algorithm Type (re)set to DF.
   => Libint2 <=

    Primary   basis highest AM E, G, H:  5, 4, 3
    Auxiliary basis highest AM E, G, H:  6, 5, 4
    Onebody   basis highest AM E, G, H:  6, 5, 4
    Solid Harmonics ordering:            Gaussian

*** tstart() called on kichot
*** at Mon Jun 15 06:35:48 2026

   => Loading Basis Set <=

    Name: AUG-CC-PVTZ
    Role: ORBITAL
    Keyword: BASIS
    atoms 1 entry HE         line    62 file /opt/psi4/share/psi4/basis/aug-cc-pvtz.gbs 
    atoms 2 entry LI         line    85 file /opt/psi4/share/psi4/basis/aug-cc-pvtz.gbs 


         ---------------------------------------------------------
                                   SCF
               by Justin Turney, Rob Parrish, Andy Simmonett
                          and Daniel G. A. Smith
                              RHF Reference
                        1 Threads,   1907 MiB Core
         ---------------------------------------------------------

  ==> Geometry <==

    Molecular point group: c2v
    Full point group: C_inf_v

    Geometry (in Bohr), charge = 1, multiplicity = 1:

       Center              X                  Y                   Z               Mass       
    ------------   -----------------  -----------------  -----------------  -----------------
      Gh(HE)          0.000000000000     0.000000000000    -6.617968087453     4.002603254130
         LI           0.000000000000     0.000000000000     3.775525602565     7.016003436600

  Running in c2v symmetry.

  Rotational constants: A = ************  B =      0.21866  C =      0.21866 [cm^-1]
  Rotational constants: A = ************  B =   6555.20329  C =   6555.20329 [MHz]
  Nuclear repulsion =    0.000000000000000

  Charge       = 1
  Multiplicity = 1
  Electrons    = 2
  Nalpha       = 1
  Nbeta        = 1

  ==> Algorithm <==

  SCF Algorithm Type is DF.
  DIIS enabled.
  MOM disabled.
  Fractional occupation disabled.
  Guess Type is SAD.
  Energy threshold   = 1.00e-08
  Density threshold  = 1.00e-08
  Integral threshold = 1.00e-12

  ==> Primary Basis <==

  Basis Set: AUG-CC-PVTZ
    Blend: AUG-CC-PVTZ
    Number of shells: 23
    Number of basis functions: 69
    Number of Cartesian functions: 80
    Spherical Harmonics?: true
    Max angular momentum: 3

   => Loading Basis Set <=

    Name: (AUG-CC-PVTZ AUX)
    Role: JKFIT
    Keyword: DF_BASIS_SCF
    atoms 1 entry HE         line    34 file /opt/psi4/share/psi4/basis/def2-universal-jkfit.gbs 
    atoms 2 entry LI         line    54 file /opt/psi4/share/psi4/basis/def2-universal-jkfit.gbs 

  ==> Integral Setup <==

  DFHelper Memory: AOs need 0.003 GiB; user supplied 1.397 GiB. 
  SCF_SUBTYPE=INCORE selected. In-core MEM_DF algorithm will be used.
  Using in-core AOs.

  ==> MemDFJK: Density-Fitted J/K Matrices <==

    J tasked:                   Yes
    K tasked:                   Yes
    wK tasked:                   No
    OpenMP threads:               1
    Memory [MiB]:              1430
    Algorithm:                 Core
    Schwarz Cutoff:           1E-12
    Mask sparsity (%):       0.0000
    Fitting Condition:        1E-10

   => Auxiliary Basis Set <=

  Basis Set: (AUG-CC-PVTZ AUX)
    Blend: DEF2-UNIVERSAL-JKFIT
    Number of shells: 26
    Number of basis functions: 74
    Number of Cartesian functions: 85
    Spherical Harmonics?: true
    Max angular momentum: 3

  Minimum eigenvalue in the overlap matrix is 1.2638228754E-03.
  Reciprocal condition number of the overlap matrix is 3.5575124630E-04.
    Using symmetric orthogonalization.

  ==> Pre-Iterations <==

  SCF Guess: Superposition of Atomic Densities via on-the-fly atomic UHF (no occupation information).

   -------------------------
    Irrep   Nso     Nmo    
   -------------------------
     A1        30      30 
     A2         7       7 
     B1        16      16 
     B2        16      16 
   -------------------------
    Total      69      69
   -------------------------

  ==> Iterations <==

                           Total Energy        Delta E     RMS |[F,P]|

   @DF-RHF iter SAD:    -7.27444409246238   -7.27444e+00   0.00000e+00 
   @DF-RHF iter   1:    -7.23638070823507    3.80634e-02   6.04064e-05 DIIS
   @DF-RHF iter   2:    -7.23638224907364   -1.54084e-06   5.21250e-06 DIIS
   @DF-RHF iter   3:    -7.23638226404402   -1.49704e-08   2.49933e-07 DIIS
   @DF-RHF iter   4:    -7.23638226408061   -3.65938e-11   9.23654e-10 DIIS
  Energy and wave function converged.


  ==> Post-Iterations <==

    Orbital Energies [Eh]
    ---------------------

    Doubly Occupied:                                                      

       1A1    -2.792357  

    Virtual:                                                              

       2A1    -0.196294     3A1    -0.128594     1B1    -0.128593  
       1B2    -0.128593     4A1    -0.073545     5A1    -0.056337  
       2B1    -0.056332     2B2    -0.056332     6A1    -0.037013  
       3B1    -0.031291     3B2    -0.031291     7A1    -0.031246  
       1A2    -0.031246     8A1    -0.003808     4B2    -0.003138  
       4B1    -0.003138     9A1     0.008865    10A1     0.020307  
       5B2     0.127305     5B1     0.127305    11A1     0.127822  
       2A2     0.127822     6B1     0.127822     6B2     0.127822  
      12A1     0.128419     7B1     0.135585     7B2     0.135585  
      13A1     0.135924     3A2     0.135924    14A1     0.153189  
       8B2     0.245506     8B1     0.245506    15A1     0.246067  
      16A1     0.349750     9B2     0.379870     9B1     0.379870  
      17A1     0.424412    18A1     0.533984     4A2     0.533984  
      10B1     0.533986    10B2     0.533986    11B2     0.535891  
      11B1     0.535891    19A1     0.558182     5A2     0.572143  
      20A1     0.572143    12B1     0.573565    12B2     0.573565  
      21A1     0.594757     6A2     1.475392    22A1     1.475392  
      13B2     1.475841    13B1     1.475841    23A1     1.479686  
      24A1     1.655255    14B2     2.190735    14B1     2.190735  
      25A1     2.225116    26A1     2.399443    27A1     7.544424  
       7A2     7.544424    15B2     7.544724    15B1     7.544724  
      28A1     7.546544    29A1     9.029874    16B2     9.625686  
      16B1     9.625686    30A1     9.650978  

    Final Occupation by Irrep:
             A1    A2    B1    B2 
    DOCC [     1,    0,    0,    0 ]
    NA   [     1,    0,    0,    0 ]
    NB   [     1,    0,    0,    0 ]

  @DF-RHF Final Energy:    -7.23638226408061

   => Energetics <=

    Nuclear Repulsion Energy =              0.0000000000000000
    One-Electron Energy =                  -8.8880501894315280
    Two-Electron Energy =                   1.6516679253509146
    Total Energy =                         -7.2363822640806132

Computation Completed


Properties will be evaluated at   0.000000,   0.000000,   0.000000 [a0]

Properties computed using the SCF density matrix


 Multipole Moments:

 ------------------------------------------------------------------------------------
     Multipole            Electronic (a.u.)      Nuclear  (a.u.)        Total (a.u.)
 ------------------------------------------------------------------------------------

 L = 1.  Multiply by 2.5417464519 to convert [e a0] to [Debye]
 Dipole X            :          0.0000000            0.0000000            0.0000000
 Dipole Y            :          0.0000000            0.0000000            0.0000000
 Dipole Z            :         -7.5510532           11.3265768            3.7755236
 Magnitude           :                                                    3.7755236

 ------------------------------------------------------------------------------------

*** tstop() called on kichot at Mon Jun 15 06:35:48 2026
Module time:
	user time   =       0.23 seconds =       0.00 minutes
	system time =       0.01 seconds =       0.00 minutes
	total time  =          0 seconds =       0.00 minutes
Total time:
	user time   =       9.98 seconds =       0.17 minutes
	system time =       0.20 seconds =       0.00 minutes
	total time  =         10 seconds =       0.17 minutes

*** tstart() called on kichot
*** at Mon Jun 15 06:35:48 2026


  //>>>>>>>>>>>>>>>>>>>>>>>>>>>>>>>>>>>//
  //               DFMP2               //
  //<<<<<<<<<<<<<<<<<<<<<<<<<<<<<<<<<<<//

   => Loading Basis Set <=

    Name: (AUG-CC-PVTZ AUX)
    Role: RIFIT
    Keyword: DF_BASIS_MP2
    atoms 1 entry HE         line    60 file /opt/psi4/share/psi4/basis/aug-cc-pvtz-ri.gbs 
    atoms 2 entry LI         line    90 file /opt/psi4/share/psi4/basis/def2-qzvpp-ri.gbs 

	 --------------------------------------------------------
	                          DF-MP2                         
	      2nd-Order Density-Fitted Moller-Plesset Theory     
	              RMP2 Wavefunction,   1 Threads             
	                                                         
	        Rob Parrish, Justin Turney, Andy Simmonett,      
	           Ed Hohenstein, and C. David Sherrill          
	 --------------------------------------------------------

   => Auxiliary Basis Set <=

  Basis Set: (AUG-CC-PVTZ AUX)
    Blend: AUG-CC-PVTZ-RI + DEF2-QZVPP-RI
    Number of shells: 41
    Number of basis functions: 137
    Number of Cartesian functions: 169
    Spherical Harmonics?: true
    Max angular momentum: 4

	 --------------------------------------------------------
	                 NBF =    69, NAUX =   137
	 --------------------------------------------------------
	   CLASS    FOCC     OCC    AOCC    AVIR     VIR    FVIR
	   PAIRS       0       1       1      68      68       0
	 --------------------------------------------------------

	-----------------------------------------------------------
	 ==================> DF-MP2 Energies <==================== 
	-----------------------------------------------------------
	 Reference Energy          =      -7.2363822640806132 [Eh]
	 Singles Energy            =      -0.0000000000000000 [Eh]
	 Same-Spin Energy          =       0.0000000000000000 [Eh]
	 Opposite-Spin Energy      =      -0.0109447353690239 [Eh]
	 Correlation Energy        =      -0.0109447353690239 [Eh]
	 Total Energy              =      -7.2473269994496370 [Eh]
	-----------------------------------------------------------
	 ================> DF-SCS-MP2 Energies <================== 
	-----------------------------------------------------------
	 SCS Same-Spin Scale       =       0.3333333333333333 [-]
	 SCS Opposite-Spin Scale   =       1.2000000000000000 [-]
	 SCS Same-Spin Energy      =       0.0000000000000000 [Eh]
	 SCS Opposite-Spin Energy  =      -0.0131336824428287 [Eh]
	 SCS Correlation Energy    =      -0.0131336824428287 [Eh]
	 SCS Total Energy          =      -7.2495159465234416 [Eh]
	-----------------------------------------------------------


*** tstop() called on kichot at Mon Jun 15 06:35:49 2026
Module time:
	user time   =       0.04 seconds =       0.00 minutes
	system time =       0.01 seconds =       0.00 minutes
	total time  =          1 seconds =       0.02 minutes
Total time:
	user time   =      10.02 seconds =       0.17 minutes
	system time =       0.21 seconds =       0.00 minutes
	total time  =         11 seconds =       0.18 minutes

    Psi4 stopped on: Monday, 15 June 2026 06:35AM
    Psi4 wall time for execution: 0:00:00.32


    -----------------------------------------------------------------------
          Psi4: An Open-Source Ab Initio Electronic Structure Package
                               Psi4 1.11a1.dev42 

                         Git: Rev {master} 144882d 


    D. G. A. Smith, L. A. Burns, A. C. Simmonett, R. M. Parrish,
    M. C. Schieber, R. Galvelis, P. Kraus, H. Kruse, R. Di Remigio,
    A. Alenaizan, A. M. James, S. Lehtola, J. P. Misiewicz, M. Scheurer,
    R. A. Shaw, J. B. Schriber, Y. Xie, Z. L. Glick, D. A. Sirianni,
    J. S. O'Brien, J. M. Waldrop, A. Kumar, E. G. Hohenstein,
    B. P. Pritchard, B. R. Brooks, H. F. Schaefer III, A. Yu. Sokolov,
    K. Patkowski, A. E. DePrince III, U. Bozkaya, R. A. King,
    F. A. Evangelista, J. M. Turney, T. D. Crawford, C. D. Sherrill,
    J. Chem. Phys. 152(18) 184108 (2020). https://doi.org/10.1063/5.0006002

                            Additional Code Authors
    E. T. Seidl, C. L. Janssen, E. F. Valeev, M. L. Leininger,
    J. F. Gonthier, R. M. Richard, H. R. McAlexander, M. Saitow, X. Wang,
    P. Verma, M. H. Lechner, A. Jiang, S. Behnle, A. G. Heide,
    M. F. Herbst, D. L. Poole, T. Győri, E. C. Mitchell, J. P. Pederson,
    and A. M. Wallace

             Previous Authors, Complete List of Code Contributors,
                       and Citations for Specific Modules
    https://github.com/psi4/psi4/blob/master/codemeta.json
    https://github.com/psi4/psi4/graphs/contributors
    https://psicode.org/psi4manual/master/introduction.html#citing-psifour

    -----------------------------------------------------------------------


    Psi4 started on: Monday, 15 June 2026 06:35AM

    Process ID: 215698
    Host:       kichot
    PSIDATADIR: /opt/psi4/share/psi4
    Memory:     1.9 GiB
    Threads:    1
    Addons:     a̶d̶c̶c̶, a̶m̶b̶i̶t̶, b̶s̶e̶, c̶c̶t̶3̶, c̶f̶o̶u̶r̶, c̶h̶e̶m̶p̶s̶2̶, c̶p̶p̶e̶, d̶d̶x̶,
                d̶f̶t̶d̶3̶, d̶f̶t̶d̶4̶, d̶k̶h̶, e̶c̶p̶i̶n̶t̶, e̶i̶n̶s̶u̶m̶s̶, f̶o̶r̶t̶e̶,
                g̶a̶u̶x̶c̶, g̶c̶p̶, g̶d̶m̶a̶, g̶e̶o̶m̶e̶t̶r̶i̶c̶, g̶p̶u̶_̶d̶f̶c̶c̶,
                i̶n̶t̶e̶g̶r̶a̶t̶o̶r̶x̶x̶, i̶p̶i̶, l̶i̶b̶e̶f̶p̶, m̶d̶i̶, m̶p̶2̶d̶, m̶r̶c̶c̶,
                o̶o̶o̶, o̶p̶e̶n̶f̶e̶r̶m̶i̶o̶n̶p̶s̶i̶4̶, p̶c̶m̶s̶o̶l̶v̶e̶r̶,
                p̶s̶i̶4̶f̶o̶c̶k̶c̶i̶, p̶s̶i̶x̶a̶s̶, p̶y̶e̶i̶n̶s̶u̶m̶s̶, r̶e̶s̶p̶, s̶i̶m̶i̶n̶t̶,
                s̶n̶s̶m̶p̶2̶, v̶2̶r̶d̶m̶_̶c̶a̶s̶s̶c̶f̶

  ==> Input QCSchema <==

--------------------------------------------------------------------------
{'driver': 'energy',
 'extras': {'psiapi': True, 'wfn_qcvars_only': True},
 'id': None,
 'keywords': {'function_kwargs': {}},
 'model': {'basis': 'aug-cc-pvtz', 'method': 'mp2'},
 'molecule': {'atom_labels': ['', ''],
              'atomic_numbers': [2, 3],
              'extras': {},
              'fix_com': True,
              'fix_orientation': True,
              'fragment_charges': [0.0, 0.0],
              'fragment_multiplicities': [1, 1],
              'fragments': [[0], [1]],
              'geometry': [0.0, 0.0, -6.617968087453, 0.0, 0.0, 3.7755256025651],
              'mass_numbers': [4, 7],
              'masses': [4.00260325413, 7.0160034366],
              'molecular_charge': 0.0,
              'molecular_multiplicity': 1,
              'name': 'He-Li+ ([0],[1])',
              'provenance': {'creator': 'QCElemental',
                             'routine': 'qcelemental.molparse.from_schema',
                             'version': '0.29.0'},
              'real': [True, False],
              'schema_name': 'qcschema_molecule',
              'schema_version': 2,
              'symbols': ['He', 'Li'],
              'validated': True},
 'protocols': {'stdout': True},
 'provenance': {'creator': 'QCElemental', 'routine': 'qcelemental.models.results', 'version': '0.29.0'},
 'schema_name': 'qcschema_input',
 'schema_version': 1}
--------------------------------------------------------------------------

Scratch directory: /scratch/lukasz/psi4/
    SCF Algorithm Type (re)set to DF.
   => Libint2 <=

    Primary   basis highest AM E, G, H:  5, 4, 3
    Auxiliary basis highest AM E, G, H:  6, 5, 4
    Onebody   basis highest AM E, G, H:  6, 5, 4
    Solid Harmonics ordering:            Gaussian

*** tstart() called on kichot
*** at Mon Jun 15 06:35:49 2026

   => Loading Basis Set <=

    Name: AUG-CC-PVTZ
    Role: ORBITAL
    Keyword: BASIS
    atoms 1 entry HE         line    62 file /opt/psi4/share/psi4/basis/aug-cc-pvtz.gbs 
    atoms 2 entry LI         line    85 file /opt/psi4/share/psi4/basis/aug-cc-pvtz.gbs 


         ---------------------------------------------------------
                                   SCF
               by Justin Turney, Rob Parrish, Andy Simmonett
                          and Daniel G. A. Smith
                              RHF Reference
                        1 Threads,   1907 MiB Core
         ---------------------------------------------------------

  ==> Geometry <==

    Molecular point group: c2v
    Full point group: C_inf_v

    Geometry (in Bohr), charge = 0, multiplicity = 1:

       Center              X                  Y                   Z               Mass       
    ------------   -----------------  -----------------  -----------------  -----------------
         HE           0.000000000000     0.000000000000    -6.617968087453     4.002603254130
      Gh(LI)          0.000000000000     0.000000000000     3.775525602565     7.016003436600

  Running in c2v symmetry.

  Rotational constants: A = ************  B =      0.21866  C =      0.21866 [cm^-1]
  Rotational constants: A = ************  B =   6555.20329  C =   6555.20329 [MHz]
  Nuclear repulsion =    0.000000000000000

  Charge       = 0
  Multiplicity = 1
  Electrons    = 2
  Nalpha       = 1
  Nbeta        = 1

  ==> Algorithm <==

  SCF Algorithm Type is DF.
  DIIS enabled.
  MOM disabled.
  Fractional occupation disabled.
  Guess Type is SAD.
  Energy threshold   = 1.00e-08
  Density threshold  = 1.00e-08
  Integral threshold = 1.00e-12

  ==> Primary Basis <==

  Basis Set: AUG-CC-PVTZ
    Blend: AUG-CC-PVTZ
    Number of shells: 23
    Number of basis functions: 69
    Number of Cartesian functions: 80
    Spherical Harmonics?: true
    Max angular momentum: 3

   => Loading Basis Set <=

    Name: (AUG-CC-PVTZ AUX)
    Role: JKFIT
    Keyword: DF_BASIS_SCF
    atoms 1 entry HE         line    34 file /opt/psi4/share/psi4/basis/def2-universal-jkfit.gbs 
    atoms 2 entry LI         line    54 file /opt/psi4/share/psi4/basis/def2-universal-jkfit.gbs 

  ==> Integral Setup <==

  DFHelper Memory: AOs need 0.003 GiB; user supplied 1.397 GiB. 
  SCF_SUBTYPE=INCORE selected. In-core MEM_DF algorithm will be used.
  Using in-core AOs.

  ==> MemDFJK: Density-Fitted J/K Matrices <==

    J tasked:                   Yes
    K tasked:                   Yes
    wK tasked:                   No
    OpenMP threads:               1
    Memory [MiB]:              1430
    Algorithm:                 Core
    Schwarz Cutoff:           1E-12
    Mask sparsity (%):       0.0000
    Fitting Condition:        1E-10

   => Auxiliary Basis Set <=

  Basis Set: (AUG-CC-PVTZ AUX)
    Blend: DEF2-UNIVERSAL-JKFIT
    Number of shells: 26
    Number of basis functions: 74
    Number of Cartesian functions: 85
    Spherical Harmonics?: true
    Max angular momentum: 3

  Minimum eigenvalue in the overlap matrix is 1.2638228754E-03.
  Reciprocal condition number of the overlap matrix is 3.5575124630E-04.
    Using symmetric orthogonalization.

  ==> Pre-Iterations <==

  SCF Guess: Superposition of Atomic Densities via on-the-fly atomic UHF (no occupation information).

   -------------------------
    Irrep   Nso     Nmo    
   -------------------------
     A1        30      30 
     A2         7       7 
     B1        16      16 
     B2        16      16 
   -------------------------
    Total      69      69
   -------------------------

  ==> Iterations <==

                           Total Energy        Delta E     RMS |[F,P]|

   @DF-RHF iter SAD:    -2.86120554929135   -2.86121e+00   0.00000e+00 
   @DF-RHF iter   1:    -2.86120627218823   -7.22897e-07   3.11084e-06 DIIS
   @DF-RHF iter   2:    -2.86120628558685   -1.33986e-08   4.77177e-07 DIIS
   @DF-RHF iter   3:    -2.86120628591360   -3.26748e-10   2.59455e-08 DIIS
   @DF-RHF iter   4:    -2.86120628591447   -8.65974e-13   2.46142e-09 DIIS
  Energy and wave function converged.


  ==> Post-Iterations <==

    Orbital Energies [Eh]
    ---------------------

    Doubly Occupied:                                                      

       1A1    -0.917872  

    Virtual:                                                              

       2A1     0.010670     1B1     0.019082     1B2     0.019082  
       3A1     0.020699     4A1     0.058105     2B1     0.070589  
       2B2     0.070589     5A1     0.070963     6A1     0.116315  
       3B2     0.121089     3B1     0.121089     7A1     0.121366  
       1A2     0.121366     8A1     0.158056     4B1     0.211647  
       4B2     0.211647     9A1     0.213173    10A1     0.216723  
      11A1     0.304431     5B1     0.305984     5B2     0.305984  
      12A1     0.307413     2A2     0.307413     6B1     0.307430  
       6B2     0.307430     7B1     0.352546     7B2     0.352546  
      13A1     0.354449     3A2     0.354449    14A1     0.362081  
       8B2     0.437427     8B1     0.437427    15A1     0.496175  
      16A1     0.810795     4A2     0.810795     9B1     0.810797  
       9B2     0.810797    10B1     0.811605    10B2     0.811605  
      17A1     0.824512    11B2     0.829742    11B1     0.829742  
      18A1     0.833916    19A1     0.875207    20A1     0.945276  
       5A2     0.945276    12B1     0.945943    12B2     0.945943  
      21A1     0.956783    22A1     1.252781     6A2     1.520877  
      23A1     1.520877    13B2     1.522911    13B1     1.522911  
      24A1     1.528151    14B1     1.966776    14B2     1.966776  
      25A1     2.007309    26A1     4.851633    27A1     7.123642  
       7A2     7.123642    15B2     7.124373    15B1     7.124373  
      28A1     7.126365    16B2     8.224911    16B1     8.224911  
      29A1     8.250750    30A1     9.827426  

    Final Occupation by Irrep:
             A1    A2    B1    B2 
    DOCC [     1,    0,    0,    0 ]
    NA   [     1,    0,    0,    0 ]
    NB   [     1,    0,    0,    0 ]

  @DF-RHF Final Energy:    -2.86120628591447

   => Energetics <=

    Nuclear Repulsion Energy =              0.0000000000000000
    One-Electron Energy =                  -3.8866694242344084
    Two-Electron Energy =                   1.0254631383199408
    Total Energy =                         -2.8612062859144674

Computation Completed


Properties will be evaluated at   0.000000,   0.000000,   0.000000 [a0]

Properties computed using the SCF density matrix


 Multipole Moments:

 ------------------------------------------------------------------------------------
     Multipole            Electronic (a.u.)      Nuclear  (a.u.)        Total (a.u.)
 ------------------------------------------------------------------------------------

 L = 1.  Multiply by 2.5417464519 to convert [e a0] to [Debye]
 Dipole X            :          0.0000000            0.0000000            0.0000000
 Dipole Y            :          0.0000000            0.0000000            0.0000000
 Dipole Z            :         13.2358825          -13.2359362           -0.0000537
 Magnitude           :                                                    0.0000537

 ------------------------------------------------------------------------------------

*** tstop() called on kichot at Mon Jun 15 06:35:49 2026
Module time:
	user time   =       0.19 seconds =       0.00 minutes
	system time =       0.01 seconds =       0.00 minutes
	total time  =          0 seconds =       0.00 minutes
Total time:
	user time   =      10.25 seconds =       0.17 minutes
	system time =       0.22 seconds =       0.00 minutes
	total time  =         11 seconds =       0.18 minutes

*** tstart() called on kichot
*** at Mon Jun 15 06:35:49 2026


  //>>>>>>>>>>>>>>>>>>>>>>>>>>>>>>>>>>>//
  //               DFMP2               //
  //<<<<<<<<<<<<<<<<<<<<<<<<<<<<<<<<<<<//

   => Loading Basis Set <=

    Name: (AUG-CC-PVTZ AUX)
    Role: RIFIT
    Keyword: DF_BASIS_MP2
    atoms 1 entry HE         line    60 file /opt/psi4/share/psi4/basis/aug-cc-pvtz-ri.gbs 
    atoms 2 entry LI         line    90 file /opt/psi4/share/psi4/basis/def2-qzvpp-ri.gbs 

	 --------------------------------------------------------
	                          DF-MP2                         
	      2nd-Order Density-Fitted Moller-Plesset Theory     
	              RMP2 Wavefunction,   1 Threads             
	                                                         
	        Rob Parrish, Justin Turney, Andy Simmonett,      
	           Ed Hohenstein, and C. David Sherrill          
	 --------------------------------------------------------

   => Auxiliary Basis Set <=

  Basis Set: (AUG-CC-PVTZ AUX)
    Blend: AUG-CC-PVTZ-RI + DEF2-QZVPP-RI
    Number of shells: 41
    Number of basis functions: 137
    Number of Cartesian functions: 169
    Spherical Harmonics?: true
    Max angular momentum: 4

	 --------------------------------------------------------
	                 NBF =    69, NAUX =   137
	 --------------------------------------------------------
	   CLASS    FOCC     OCC    AOCC    AVIR     VIR    FVIR
	   PAIRS       0       1       1      68      68       0
	 --------------------------------------------------------

	-----------------------------------------------------------
	 ==================> DF-MP2 Energies <==================== 
	-----------------------------------------------------------
	 Reference Energy          =      -2.8612062859144674 [Eh]
	 Singles Energy            =      -0.0000000000000000 [Eh]
	 Same-Spin Energy          =       0.0000000000000000 [Eh]
	 Opposite-Spin Energy      =      -0.0336114029397386 [Eh]
	 Correlation Energy        =      -0.0336114029397386 [Eh]
	 Total Energy              =      -2.8948176888542059 [Eh]
	-----------------------------------------------------------
	 ================> DF-SCS-MP2 Energies <================== 
	-----------------------------------------------------------
	 SCS Same-Spin Scale       =       0.3333333333333333 [-]
	 SCS Opposite-Spin Scale   =       1.2000000000000000 [-]
	 SCS Same-Spin Energy      =       0.0000000000000000 [Eh]
	 SCS Opposite-Spin Energy  =      -0.0403336835276863 [Eh]
	 SCS Correlation Energy    =      -0.0403336835276863 [Eh]
	 SCS Total Energy          =      -2.9015399694421538 [Eh]
	-----------------------------------------------------------


*** tstop() called on kichot at Mon Jun 15 06:35:49 2026
Module time:
	user time   =       0.05 seconds =       0.00 minutes
	system time =       0.00 seconds =       0.00 minutes
	total time  =          0 seconds =       0.00 minutes
Total time:
	user time   =      10.30 seconds =       0.17 minutes
	system time =       0.22 seconds =       0.00 minutes
	total time  =         11 seconds =       0.18 minutes

    Psi4 stopped on: Monday, 15 June 2026 06:35AM
    Psi4 wall time for execution: 0:00:00.28


    -----------------------------------------------------------------------
          Psi4: An Open-Source Ab Initio Electronic Structure Package
                               Psi4 1.11a1.dev42 

                         Git: Rev {master} 144882d 


    D. G. A. Smith, L. A. Burns, A. C. Simmonett, R. M. Parrish,
    M. C. Schieber, R. Galvelis, P. Kraus, H. Kruse, R. Di Remigio,
    A. Alenaizan, A. M. James, S. Lehtola, J. P. Misiewicz, M. Scheurer,
    R. A. Shaw, J. B. Schriber, Y. Xie, Z. L. Glick, D. A. Sirianni,
    J. S. O'Brien, J. M. Waldrop, A. Kumar, E. G. Hohenstein,
    B. P. Pritchard, B. R. Brooks, H. F. Schaefer III, A. Yu. Sokolov,
    K. Patkowski, A. E. DePrince III, U. Bozkaya, R. A. King,
    F. A. Evangelista, J. M. Turney, T. D. Crawford, C. D. Sherrill,
    J. Chem. Phys. 152(18) 184108 (2020). https://doi.org/10.1063/5.0006002

                            Additional Code Authors
    E. T. Seidl, C. L. Janssen, E. F. Valeev, M. L. Leininger,
    J. F. Gonthier, R. M. Richard, H. R. McAlexander, M. Saitow, X. Wang,
    P. Verma, M. H. Lechner, A. Jiang, S. Behnle, A. G. Heide,
    M. F. Herbst, D. L. Poole, T. Győri, E. C. Mitchell, J. P. Pederson,
    and A. M. Wallace

             Previous Authors, Complete List of Code Contributors,
                       and Citations for Specific Modules
    https://github.com/psi4/psi4/blob/master/codemeta.json
    https://github.com/psi4/psi4/graphs/contributors
    https://psicode.org/psi4manual/master/introduction.html#citing-psifour

    -----------------------------------------------------------------------


    Psi4 started on: Monday, 15 June 2026 06:35AM

    Process ID: 215698
    Host:       kichot
    PSIDATADIR: /opt/psi4/share/psi4
    Memory:     1.9 GiB
    Threads:    1
    Addons:     a̶d̶c̶c̶, a̶m̶b̶i̶t̶, b̶s̶e̶, c̶c̶t̶3̶, c̶f̶o̶u̶r̶, c̶h̶e̶m̶p̶s̶2̶, c̶p̶p̶e̶, d̶d̶x̶,
                d̶f̶t̶d̶3̶, d̶f̶t̶d̶4̶, d̶k̶h̶, e̶c̶p̶i̶n̶t̶, e̶i̶n̶s̶u̶m̶s̶, f̶o̶r̶t̶e̶,
                g̶a̶u̶x̶c̶, g̶c̶p̶, g̶d̶m̶a̶, g̶e̶o̶m̶e̶t̶r̶i̶c̶, g̶p̶u̶_̶d̶f̶c̶c̶,
                i̶n̶t̶e̶g̶r̶a̶t̶o̶r̶x̶x̶, i̶p̶i̶, l̶i̶b̶e̶f̶p̶, m̶d̶i̶, m̶p̶2̶d̶, m̶r̶c̶c̶,
                o̶o̶o̶, o̶p̶e̶n̶f̶e̶r̶m̶i̶o̶n̶p̶s̶i̶4̶, p̶c̶m̶s̶o̶l̶v̶e̶r̶,
                p̶s̶i̶4̶f̶o̶c̶k̶c̶i̶, p̶s̶i̶x̶a̶s̶, p̶y̶e̶i̶n̶s̶u̶m̶s̶, r̶e̶s̶p̶, s̶i̶m̶i̶n̶t̶,
                s̶n̶s̶m̶p̶2̶, v̶2̶r̶d̶m̶_̶c̶a̶s̶s̶c̶f̶

  ==> Input QCSchema <==

--------------------------------------------------------------------------
{'driver': 'energy',
 'extras': {'psiapi': True, 'wfn_qcvars_only': True},
 'id': None,
 'keywords': {'function_kwargs': {}},
 'model': {'basis': 'aug-cc-pvtz', 'method': 'mp2'},
 'molecule': {'atom_labels': ['', ''],
              'atomic_numbers': [2, 3],
              'extras': {},
              'fix_com': True,
              'fix_orientation': True,
              'fragment_charges': [0.0, 1.0],
              'fragment_multiplicities': [1, 1],
              'fragments': [[0], [1]],
              'geometry': [0.0, 0.0, -6.617968087453, 0.0, 0.0, 3.7755256025651],
              'mass_numbers': [4, 7],
              'masses': [4.00260325413, 7.0160034366],
              'molecular_charge': 1.0,
              'molecular_multiplicity': 1,
              'name': 'He-Li+ ([0, 1],[])',
              'provenance': {'creator': 'QCElemental',
                             'routine': 'qcelemental.molparse.from_schema',
                             'version': '0.29.0'},
              'real': [True, True],
              'schema_name': 'qcschema_molecule',
              'schema_version': 2,
              'symbols': ['He', 'Li'],
              'validated': True},
 'protocols': {'stdout': True},
 'provenance': {'creator': 'QCElemental', 'routine': 'qcelemental.models.results', 'version': '0.29.0'},
 'schema_name': 'qcschema_input',
 'schema_version': 1}
--------------------------------------------------------------------------

Scratch directory: /scratch/lukasz/psi4/
    SCF Algorithm Type (re)set to DF.
   => Libint2 <=

    Primary   basis highest AM E, G, H:  5, 4, 3
    Auxiliary basis highest AM E, G, H:  6, 5, 4
    Onebody   basis highest AM E, G, H:  6, 5, 4
    Solid Harmonics ordering:            Gaussian

*** tstart() called on kichot
*** at Mon Jun 15 06:35:49 2026

   => Loading Basis Set <=

    Name: AUG-CC-PVTZ
    Role: ORBITAL
    Keyword: BASIS
    atoms 1 entry HE         line    62 file /opt/psi4/share/psi4/basis/aug-cc-pvtz.gbs 
    atoms 2 entry LI         line    85 file /opt/psi4/share/psi4/basis/aug-cc-pvtz.gbs 


         ---------------------------------------------------------
                                   SCF
               by Justin Turney, Rob Parrish, Andy Simmonett
                          and Daniel G. A. Smith
                              RHF Reference
                        1 Threads,   1907 MiB Core
         ---------------------------------------------------------

  ==> Geometry <==

    Molecular point group: c2v
    Full point group: C_inf_v

    Geometry (in Bohr), charge = 1, multiplicity = 1:

       Center              X                  Y                   Z               Mass       
    ------------   -----------------  -----------------  -----------------  -----------------
         HE           0.000000000000     0.000000000000    -6.617968087453     4.002603254130
         LI           0.000000000000     0.000000000000     3.775525602565     7.016003436600

  Running in c2v symmetry.

  Rotational constants: A = ************  B =      0.21866  C =      0.21866 [cm^-1]
  Rotational constants: A = ************  B =   6555.20329  C =   6555.20329 [MHz]
  Nuclear repulsion =    0.577284229821816

  Charge       = 1
  Multiplicity = 1
  Electrons    = 4
  Nalpha       = 2
  Nbeta        = 2

  ==> Algorithm <==

  SCF Algorithm Type is DF.
  DIIS enabled.
  MOM disabled.
  Fractional occupation disabled.
  Guess Type is SAD.
  Energy threshold   = 1.00e-08
  Density threshold  = 1.00e-08
  Integral threshold = 1.00e-12

  ==> Primary Basis <==

  Basis Set: AUG-CC-PVTZ
    Blend: AUG-CC-PVTZ
    Number of shells: 23
    Number of basis functions: 69
    Number of Cartesian functions: 80
    Spherical Harmonics?: true
    Max angular momentum: 3

   => Loading Basis Set <=

    Name: (AUG-CC-PVTZ AUX)
    Role: JKFIT
    Keyword: DF_BASIS_SCF
    atoms 1 entry HE         line    34 file /opt/psi4/share/psi4/basis/def2-universal-jkfit.gbs 
    atoms 2 entry LI         line    54 file /opt/psi4/share/psi4/basis/def2-universal-jkfit.gbs 

  ==> Integral Setup <==

  DFHelper Memory: AOs need 0.003 GiB; user supplied 1.397 GiB. 
  SCF_SUBTYPE=INCORE selected. In-core MEM_DF algorithm will be used.
  Using in-core AOs.

  ==> MemDFJK: Density-Fitted J/K Matrices <==

    J tasked:                   Yes
    K tasked:                   Yes
    wK tasked:                   No
    OpenMP threads:               1
    Memory [MiB]:              1430
    Algorithm:                 Core
    Schwarz Cutoff:           1E-12
    Mask sparsity (%):       0.0000
    Fitting Condition:        1E-10

   => Auxiliary Basis Set <=

  Basis Set: (AUG-CC-PVTZ AUX)
    Blend: DEF2-UNIVERSAL-JKFIT
    Number of shells: 26
    Number of basis functions: 74
    Number of Cartesian functions: 85
    Spherical Harmonics?: true
    Max angular momentum: 3

  Minimum eigenvalue in the overlap matrix is 1.2638228754E-03.
  Reciprocal condition number of the overlap matrix is 3.5575124630E-04.
    Using symmetric orthogonalization.

  ==> Pre-Iterations <==

  SCF Guess: Superposition of Atomic Densities via on-the-fly atomic UHF (no occupation information).

   -------------------------
    Irrep   Nso     Nmo    
   -------------------------
     A1        30      30 
     A2         7       7 
     B1        16      16 
     B2        16      16 
   -------------------------
    Total      69      69
   -------------------------

  ==> Iterations <==

                           Total Energy        Delta E     RMS |[F,P]|

   @DF-RHF iter SAD:   -10.13959140480598   -1.01396e+01   0.00000e+00 
   @DF-RHF iter   1:   -10.09749705467781    4.20944e-02   3.27746e-04 ADIIS/DIIS
   @DF-RHF iter   2:   -10.09763868222306   -1.41628e-04   7.62079e-05 DIIS
   @DF-RHF iter   3:   -10.09764681205531   -8.12983e-06   5.50830e-06 DIIS
   @DF-RHF iter   4:   -10.09764684933066   -3.72753e-08   4.70681e-07 DIIS
   @DF-RHF iter   5:   -10.09764684961866   -2.88004e-10   2.79945e-08 DIIS
   @DF-RHF iter   6:   -10.09764684961984   -1.17950e-12   1.32840e-09 DIIS
  Energy and wave function converged.


  ==> Post-Iterations <==

    Orbital Energies [Eh]
    ---------------------

    Doubly Occupied:                                                      

       1A1    -2.792241     2A1    -1.014143  

    Virtual:                                                              

       3A1    -0.196149     1B1    -0.128489     1B2    -0.128489  
       4A1    -0.128102     5A1    -0.072750     2B1    -0.056355  
       2B2    -0.056355     6A1    -0.054720     3B2    -0.031241  
       3B1    -0.031241     7A1    -0.031138     1A2    -0.031138  
       8A1    -0.029630     4B2    -0.003109     4B1    -0.003109  
       9A1    -0.002795    10A1     0.009713    11A1     0.056793  
       5B2     0.127310     5B1     0.127310     6B1     0.127946  
       6B2     0.127946    12A1     0.127949     2A2     0.127949  
      13A1     0.129546     7B2     0.135521     7B1     0.135521  
      14A1     0.136009     3A2     0.136009    15A1     0.152746  
       8B1     0.245541     8B2     0.245541    16A1     0.247135  
       9B2     0.339079     9B1     0.339079    17A1     0.376630  
      10B1     0.534082    10B2     0.534082    18A1     0.534092  
       4A2     0.534092    11B2     0.535540    11B1     0.535540  
      19A1     0.554296     5A2     0.572257    20A1     0.572257  
      12B1     0.573436    12B2     0.573436    21A1     0.591777  
      22A1     0.779234     6A2     1.425633    23A1     1.425633  
      13B2     1.426099    13B1     1.426099    24A1     1.429993  
      14B1     1.870967    14B2     1.870967    25A1     1.907668  
      26A1     2.397518    27A1     4.755755    28A1     7.027640  
       7A2     7.027640    15B2     7.027972    15B1     7.027972  
      29A1     7.029798    16B2     8.128778    16B1     8.128778  
      30A1     8.154425  

    Final Occupation by Irrep:
             A1    A2    B1    B2 
    DOCC [     2,    0,    0,    0 ]
    NA   [     2,    0,    0,    0 ]
    NB   [     2,    0,    0,    0 ]

  @DF-RHF Final Energy:   -10.09764684961984

   => Energetics <=

    Nuclear Repulsion Energy =              0.5772842298218156
    One-Electron Energy =                 -13.7370939439079454
    Two-Electron Energy =                   3.0621628644662855
    Total Energy =                        -10.0976468496198439

Computation Completed


Properties will be evaluated at   0.000000,   0.000000,   0.000000 [a0]

Properties computed using the SCF density matrix


 Multipole Moments:

 ------------------------------------------------------------------------------------
     Multipole            Electronic (a.u.)      Nuclear  (a.u.)        Total (a.u.)
 ------------------------------------------------------------------------------------

 L = 1.  Multiply by 2.5417464519 to convert [e a0] to [Debye]
 Dipole X            :          0.0000000            0.0000000            0.0000000
 Dipole Y            :          0.0000000            0.0000000            0.0000000
 Dipole Z            :          5.6725008           -1.9093594            3.7631414
 Magnitude           :                                                    3.7631414

 ------------------------------------------------------------------------------------

*** tstop() called on kichot at Mon Jun 15 06:35:49 2026
Module time:
	user time   =       0.25 seconds =       0.00 minutes
	system time =       0.01 seconds =       0.00 minutes
	total time  =          0 seconds =       0.00 minutes
Total time:
	user time   =      10.59 seconds =       0.18 minutes
	system time =       0.23 seconds =       0.00 minutes
	total time  =         11 seconds =       0.18 minutes

*** tstart() called on kichot
*** at Mon Jun 15 06:35:49 2026


  //>>>>>>>>>>>>>>>>>>>>>>>>>>>>>>>>>>>//
  //               DFMP2               //
  //<<<<<<<<<<<<<<<<<<<<<<<<<<<<<<<<<<<//

   => Loading Basis Set <=

    Name: (AUG-CC-PVTZ AUX)
    Role: RIFIT
    Keyword: DF_BASIS_MP2
    atoms 1 entry HE         line    60 file /opt/psi4/share/psi4/basis/aug-cc-pvtz-ri.gbs 
    atoms 2 entry LI         line    90 file /opt/psi4/share/psi4/basis/def2-qzvpp-ri.gbs 

	 --------------------------------------------------------
	                          DF-MP2                         
	      2nd-Order Density-Fitted Moller-Plesset Theory     
	              RMP2 Wavefunction,   1 Threads             
	                                                         
	        Rob Parrish, Justin Turney, Andy Simmonett,      
	           Ed Hohenstein, and C. David Sherrill          
	 --------------------------------------------------------

   => Auxiliary Basis Set <=

  Basis Set: (AUG-CC-PVTZ AUX)
    Blend: AUG-CC-PVTZ-RI + DEF2-QZVPP-RI
    Number of shells: 41
    Number of basis functions: 137
    Number of Cartesian functions: 169
    Spherical Harmonics?: true
    Max angular momentum: 4

	 --------------------------------------------------------
	                 NBF =    69, NAUX =   137
	 --------------------------------------------------------
	   CLASS    FOCC     OCC    AOCC    AVIR     VIR    FVIR
	   PAIRS       0       2       2      67      67       0
	 --------------------------------------------------------

	-----------------------------------------------------------
	 ==================> DF-MP2 Energies <==================== 
	-----------------------------------------------------------
	 Reference Energy          =     -10.0976468496198439 [Eh]
	 Singles Energy            =      -0.0000000000000000 [Eh]
	 Same-Spin Energy          =      -0.0000000631192797 [Eh]
	 Opposite-Spin Energy      =      -0.0445579408697367 [Eh]
	 Correlation Energy        =      -0.0445580039890163 [Eh]
	 Total Energy              =     -10.1422048536088596 [Eh]
	-----------------------------------------------------------
	 ================> DF-SCS-MP2 Energies <================== 
	-----------------------------------------------------------
	 SCS Same-Spin Scale       =       0.3333333333333333 [-]
	 SCS Opposite-Spin Scale   =       1.2000000000000000 [-]
	 SCS Same-Spin Energy      =      -0.0000000210397599 [Eh]
	 SCS Opposite-Spin Energy  =      -0.0534695290436840 [Eh]
	 SCS Correlation Energy    =      -0.0534695500834439 [Eh]
	 SCS Total Energy          =     -10.1511163997032874 [Eh]
	-----------------------------------------------------------


*** tstop() called on kichot at Mon Jun 15 06:35:49 2026
Module time:
	user time   =       0.04 seconds =       0.00 minutes
	system time =       0.01 seconds =       0.00 minutes
	total time  =          0 seconds =       0.00 minutes
Total time:
	user time   =      10.63 seconds =       0.18 minutes
	system time =       0.24 seconds =       0.00 minutes
	total time  =         11 seconds =       0.18 minutes

    Psi4 stopped on: Monday, 15 June 2026 06:35AM
    Psi4 wall time for execution: 0:00:00.34


  //>>>>>>>>>>>>>>>>>>>>>>>>>>>>>>>>>>>//
  //          ManyBody Results         //
  //<<<<<<<<<<<<<<<<<<<<<<<<<<<<<<<<<<<//


   ==> N-Body: Counterpoise Corrected (CP) energies <==

              MC n-Body  Total Energy            Interaction Energy                          N-body Contribution to Interaction Energy
                         [Eh]                    [Eh]                  [kcal/mol]            [Eh]                  [kcal/mol]
              §A  1        N/A                   0.000000000000        0.000000000000        0.000000000000        0.000000000000
     FULL/RTN §A  2        N/A                  -0.000060165305       -0.037754298891       -0.000060165305       -0.037754298891

   MC Legend: §A: "(auto)"


Scratch directory: /scratch/lukasz/psi4/

  //>>>>>>>>>>>>>>>>>>>>>>>>>>>>>>>>>>>//
  //   ManyBody Setup: N-Body Levels 2 //
  //<<<<<<<<<<<<<<<<<<<<<<<<<<<<<<<<<<<//

    Model chemistry "(auto)" (§A):          3
        Number of 1-body computations:      2 (nocp: 0, cp: 2, vmfc_compute: 0)
        Number of 2-body computations:      1 (nocp: 0, cp: 1, vmfc_compute: 0)

    -----------------------------------------------------------------------
          Psi4: An Open-Source Ab Initio Electronic Structure Package
                               Psi4 1.11a1.dev42 

                         Git: Rev {master} 144882d 


    D. G. A. Smith, L. A. Burns, A. C. Simmonett, R. M. Parrish,
    M. C. Schieber, R. Galvelis, P. Kraus, H. Kruse, R. Di Remigio,
    A. Alenaizan, A. M. James, S. Lehtola, J. P. Misiewicz, M. Scheurer,
    R. A. Shaw, J. B. Schriber, Y. Xie, Z. L. Glick, D. A. Sirianni,
    J. S. O'Brien, J. M. Waldrop, A. Kumar, E. G. Hohenstein,
    B. P. Pritchard, B. R. Brooks, H. F. Schaefer III, A. Yu. Sokolov,
    K. Patkowski, A. E. DePrince III, U. Bozkaya, R. A. King,
    F. A. Evangelista, J. M. Turney, T. D. Crawford, C. D. Sherrill,
    J. Chem. Phys. 152(18) 184108 (2020). https://doi.org/10.1063/5.0006002

                            Additional Code Authors
    E. T. Seidl, C. L. Janssen, E. F. Valeev, M. L. Leininger,
    J. F. Gonthier, R. M. Richard, H. R. McAlexander, M. Saitow, X. Wang,
    P. Verma, M. H. Lechner, A. Jiang, S. Behnle, A. G. Heide,
    M. F. Herbst, D. L. Poole, T. Győri, E. C. Mitchell, J. P. Pederson,
    and A. M. Wallace

             Previous Authors, Complete List of Code Contributors,
                       and Citations for Specific Modules
    https://github.com/psi4/psi4/blob/master/codemeta.json
    https://github.com/psi4/psi4/graphs/contributors
    https://psicode.org/psi4manual/master/introduction.html#citing-psifour

    -----------------------------------------------------------------------


    Psi4 started on: Monday, 15 June 2026 06:35AM

    Process ID: 215698
    Host:       kichot
    PSIDATADIR: /opt/psi4/share/psi4
    Memory:     1.9 GiB
    Threads:    1
    Addons:     a̶d̶c̶c̶, a̶m̶b̶i̶t̶, b̶s̶e̶, c̶c̶t̶3̶, c̶f̶o̶u̶r̶, c̶h̶e̶m̶p̶s̶2̶, c̶p̶p̶e̶, d̶d̶x̶,
                d̶f̶t̶d̶3̶, d̶f̶t̶d̶4̶, d̶k̶h̶, e̶c̶p̶i̶n̶t̶, e̶i̶n̶s̶u̶m̶s̶, f̶o̶r̶t̶e̶,
                g̶a̶u̶x̶c̶, g̶c̶p̶, g̶d̶m̶a̶, g̶e̶o̶m̶e̶t̶r̶i̶c̶, g̶p̶u̶_̶d̶f̶c̶c̶,
                i̶n̶t̶e̶g̶r̶a̶t̶o̶r̶x̶x̶, i̶p̶i̶, l̶i̶b̶e̶f̶p̶, m̶d̶i̶, m̶p̶2̶d̶, m̶r̶c̶c̶,
                o̶o̶o̶, o̶p̶e̶n̶f̶e̶r̶m̶i̶o̶n̶p̶s̶i̶4̶, p̶c̶m̶s̶o̶l̶v̶e̶r̶,
                p̶s̶i̶4̶f̶o̶c̶k̶c̶i̶, p̶s̶i̶x̶a̶s̶, p̶y̶e̶i̶n̶s̶u̶m̶s̶, r̶e̶s̶p̶, s̶i̶m̶i̶n̶t̶,
                s̶n̶s̶m̶p̶2̶, v̶2̶r̶d̶m̶_̶c̶a̶s̶s̶c̶f̶

  ==> Input QCSchema <==

--------------------------------------------------------------------------
{'driver': 'energy',
 'extras': {'psiapi': True, 'wfn_qcvars_only': True},
 'id': None,
 'keywords': {'function_kwargs': {}},
 'model': {'basis': 'aug-cc-pvqz', 'method': 'scf'},
 'molecule': {'atom_labels': ['', ''],
              'atomic_numbers': [2, 3],
              'extras': {},
              'fix_com': True,
              'fix_orientation': True,
              'fragment_charges': [0.0, 1.0],
              'fragment_multiplicities': [1, 1],
              'fragments': [[0], [1]],
              'geometry': [0.0, 0.0, -6.617968087453, 0.0, 0.0, 3.7755256025651],
              'mass_numbers': [4, 7],
              'masses': [4.00260325413, 7.0160034366],
              'molecular_charge': 1.0,
              'molecular_multiplicity': 1,
              'name': 'He-Li+ ([1],[0])',
              'provenance': {'creator': 'QCElemental',
                             'routine': 'qcelemental.molparse.from_schema',
                             'version': '0.29.0'},
              'real': [False, True],
              'schema_name': 'qcschema_molecule',
              'schema_version': 2,
              'symbols': ['He', 'Li'],
              'validated': True},
 'protocols': {'stdout': True},
 'provenance': {'creator': 'QCElemental', 'routine': 'qcelemental.models.results', 'version': '0.29.0'},
 'schema_name': 'qcschema_input',
 'schema_version': 1}
--------------------------------------------------------------------------

Scratch directory: /scratch/lukasz/psi4/
   => Libint2 <=

    Primary   basis highest AM E, G, H:  5, 4, 3
    Auxiliary basis highest AM E, G, H:  6, 5, 4
    Onebody   basis highest AM E, G, H:  6, 5, 4
    Solid Harmonics ordering:            Gaussian

*** tstart() called on kichot
*** at Mon Jun 15 06:35:49 2026

   => Loading Basis Set <=

    Name: AUG-CC-PVQZ
    Role: ORBITAL
    Keyword: BASIS
    atoms 1 entry HE         line    72 file /opt/psi4/share/psi4/basis/aug-cc-pvqz.gbs 
    atoms 2 entry LI         line   105 file /opt/psi4/share/psi4/basis/aug-cc-pvqz.gbs 


         ---------------------------------------------------------
                                   SCF
               by Justin Turney, Rob Parrish, Andy Simmonett
                          and Daniel G. A. Smith
                              RHF Reference
                        1 Threads,   1907 MiB Core
         ---------------------------------------------------------

  ==> Geometry <==

    Molecular point group: c2v
    Full point group: C_inf_v

    Geometry (in Bohr), charge = 1, multiplicity = 1:

       Center              X                  Y                   Z               Mass       
    ------------   -----------------  -----------------  -----------------  -----------------
      Gh(HE)          0.000000000000     0.000000000000    -6.617968087453     4.002603254130
         LI           0.000000000000     0.000000000000     3.775525602565     7.016003436600

  Running in c2v symmetry.

  Rotational constants: A = ************  B =      0.21866  C =      0.21866 [cm^-1]
  Rotational constants: A = ************  B =   6555.20329  C =   6555.20329 [MHz]
  Nuclear repulsion =    0.000000000000000

  Charge       = 1
  Multiplicity = 1
  Electrons    = 2
  Nalpha       = 1
  Nbeta        = 1

  ==> Algorithm <==

  SCF Algorithm Type is DF.
  DIIS enabled.
  MOM disabled.
  Fractional occupation disabled.
  Guess Type is SAD.
  Energy threshold   = 1.00e-06
  Density threshold  = 1.00e-06
  Integral threshold = 1.00e-12

  ==> Primary Basis <==

  Basis Set: AUG-CC-PVQZ
    Blend: AUG-CC-PVQZ
    Number of shells: 34
    Number of basis functions: 126
    Number of Cartesian functions: 160
    Spherical Harmonics?: true
    Max angular momentum: 4

   => Loading Basis Set <=

    Name: (AUG-CC-PVQZ AUX)
    Role: JKFIT
    Keyword: DF_BASIS_SCF
    atoms 1 entry HE         line    34 file /opt/psi4/share/psi4/basis/def2-universal-jkfit.gbs 
    atoms 2 entry LI         line    54 file /opt/psi4/share/psi4/basis/def2-universal-jkfit.gbs 

  ==> Integral Setup <==

  DFHelper Memory: AOs need 0.011 GiB; user supplied 1.397 GiB. 
  SCF_SUBTYPE=INCORE selected. In-core MEM_DF algorithm will be used.
  Using in-core AOs.

  ==> MemDFJK: Density-Fitted J/K Matrices <==

    J tasked:                   Yes
    K tasked:                   Yes
    wK tasked:                   No
    OpenMP threads:               1
    Memory [MiB]:              1430
    Algorithm:                 Core
    Schwarz Cutoff:           1E-12
    Mask sparsity (%):       1.7007
    Fitting Condition:        1E-10

   => Auxiliary Basis Set <=

  Basis Set: (AUG-CC-PVQZ AUX)
    Blend: DEF2-UNIVERSAL-JKFIT
    Number of shells: 26
    Number of basis functions: 74
    Number of Cartesian functions: 85
    Spherical Harmonics?: true
    Max angular momentum: 3

  Minimum eigenvalue in the overlap matrix is 1.0366858895E-03.
  Reciprocal condition number of the overlap matrix is 2.4965897765E-04.
    Using symmetric orthogonalization.

  ==> Pre-Iterations <==

  SCF Guess: Superposition of Atomic Densities via on-the-fly atomic UHF (no occupation information).

   -------------------------
    Irrep   Nso     Nmo    
   -------------------------
     A1        50      50 
     A2        16      16 
     B1        30      30 
     B2        30      30 
   -------------------------
    Total     126     126
   -------------------------

  ==> Iterations <==

                           Total Energy        Delta E     RMS |[F,P]|

   @DF-RHF iter SAD:    -7.28971671371103   -7.28972e+00   0.00000e+00 
   @DF-RHF iter   1:    -7.23638468405067    5.33320e-02   3.50771e-05 DIIS
   @DF-RHF iter   2:    -7.23638632971018   -1.64566e-06   3.19049e-06 DIIS
   @DF-RHF iter   3:    -7.23638634786372   -1.81535e-08   1.85186e-07 DIIS
  Energy and wave function converged.


  ==> Post-Iterations <==

    Orbital Energies [Eh]
    ---------------------

    Doubly Occupied:                                                      

       1A1    -2.792355  

    Virtual:                                                              

       2A1    -0.196303     3A1    -0.128625     1B2    -0.128624  
       1B1    -0.128624     4A1    -0.073562     5A1    -0.056679  
       2B2    -0.056678     2B1    -0.056678     6A1    -0.047225  
       3B2    -0.046213     3B1    -0.046213     7A1    -0.046207  
       1A2    -0.046207     8A1    -0.021932     9A1    -0.014618  
       4B2    -0.014365     4B1    -0.014365    10A1     0.010966  
       5B1     0.053947     5B2     0.053947     2A2     0.054740  
      11A1     0.054740     6B2     0.054744     6B1     0.054744  
      12A1     0.064304     7B2     0.074960     7B1     0.074960  
      13A1     0.075056     3A2     0.075056    14A1     0.093788  
       8B1     0.134231     8B2     0.134231    15A1     0.134543  
      16A1     0.169300    17A1     0.274790     9B1     0.285393  
       9B2     0.285393    18A1     0.323123     4A2     0.340237  
      19A1     0.340237    10B2     0.340242    10B1     0.340242  
       5A2     0.340242    20A1     0.340242    11B2     0.343220  
      11B1     0.343220    21A1     0.357459     6A2     0.357459  
      12B1     0.357474    12B2     0.357474    22A1     0.358323  
      13B1     0.367925    13B2     0.367925    23A1     0.403071  
       7A2     0.403071    14B1     0.404290    14B2     0.404290  
      24A1     0.410471    25A1     0.444715    15B1     0.841372  
      15B2     0.841372    26A1     0.841759    16B2     1.054718  
      16B1     1.054718    27A1     1.060401     8A2     1.060401  
      17B2     1.061488    17B1     1.061488    28A1     1.074052  
       9A2     1.081943    29A1     1.081943    30A1     1.088050  
      18B2     1.092279    18B1     1.092279    10A2     1.189933  
      31A1     1.189933    19B2     1.189933    19B1     1.189933  
      32A1     1.189973    11A2     1.189973    20B1     1.191671  
      20B2     1.191671    33A1     1.204593    34A1     1.245711  
      12A2     1.245711    21B2     1.246015    21B1     1.246015  
      35A1     1.253140    36A1     1.311837    22B2     1.599564  
      22B1     1.599564    37A1     1.668736    38A1     2.730093  
      23B2     2.953565    23B1     2.953565    39A1     2.953764  
      13A2     2.953764    40A1     2.954124    24B1     2.954646  
      24B2     2.954646    41A1     4.518577    14A2     4.725527  
      42A1     4.725527    25B2     4.727960    25B1     4.727960  
      43A1     4.733577    26B2     5.782829    26B1     5.782829  
      44A1     5.830212    27B1    12.921710    27B2    12.921710  
      45A1    12.921756    15A2    12.921756    46A1    12.921853  
      28B1    12.922019    28B2    12.922019    16A2    17.808669  
      47A1    17.808669    29B1    17.810162    29B2    17.810162  
      48A1    17.813276    49A1    20.608992    30B2    20.661983  
      30B1    20.661983    50A1    20.701657  

    Final Occupation by Irrep:
             A1    A2    B1    B2 
    DOCC [     1,    0,    0,    0 ]
    NA   [     1,    0,    0,    0 ]
    NB   [     1,    0,    0,    0 ]

  @DF-RHF Final Energy:    -7.23638634786372

   => Energetics <=

    Nuclear Repulsion Energy =              0.0000000000000000
    One-Electron Energy =                  -8.8880620150444933
    Two-Electron Energy =                   1.6516756671807753
    Total Energy =                         -7.2363863478637178

Computation Completed


Properties will be evaluated at   0.000000,   0.000000,   0.000000 [a0]

Properties computed using the SCF density matrix


 Multipole Moments:

 ------------------------------------------------------------------------------------
     Multipole            Electronic (a.u.)      Nuclear  (a.u.)        Total (a.u.)
 ------------------------------------------------------------------------------------

 L = 1.  Multiply by 2.5417464519 to convert [e a0] to [Debye]
 Dipole X            :          0.0000000            0.0000000            0.0000000
 Dipole Y            :          0.0000000            0.0000000            0.0000000
 Dipole Z            :         -7.5510515           11.3265768            3.7755253
 Magnitude           :                                                    3.7755253

 ------------------------------------------------------------------------------------

*** tstop() called on kichot at Mon Jun 15 06:35:50 2026
Module time:
	user time   =       0.44 seconds =       0.01 minutes
	system time =       0.03 seconds =       0.00 minutes
	total time  =          1 seconds =       0.02 minutes
Total time:
	user time   =      11.18 seconds =       0.19 minutes
	system time =       0.27 seconds =       0.00 minutes
	total time  =         12 seconds =       0.20 minutes

    Psi4 stopped on: Monday, 15 June 2026 06:35AM
    Psi4 wall time for execution: 0:00:00.49


    -----------------------------------------------------------------------
          Psi4: An Open-Source Ab Initio Electronic Structure Package
                               Psi4 1.11a1.dev42 

                         Git: Rev {master} 144882d 


    D. G. A. Smith, L. A. Burns, A. C. Simmonett, R. M. Parrish,
    M. C. Schieber, R. Galvelis, P. Kraus, H. Kruse, R. Di Remigio,
    A. Alenaizan, A. M. James, S. Lehtola, J. P. Misiewicz, M. Scheurer,
    R. A. Shaw, J. B. Schriber, Y. Xie, Z. L. Glick, D. A. Sirianni,
    J. S. O'Brien, J. M. Waldrop, A. Kumar, E. G. Hohenstein,
    B. P. Pritchard, B. R. Brooks, H. F. Schaefer III, A. Yu. Sokolov,
    K. Patkowski, A. E. DePrince III, U. Bozkaya, R. A. King,
    F. A. Evangelista, J. M. Turney, T. D. Crawford, C. D. Sherrill,
    J. Chem. Phys. 152(18) 184108 (2020). https://doi.org/10.1063/5.0006002

                            Additional Code Authors
    E. T. Seidl, C. L. Janssen, E. F. Valeev, M. L. Leininger,
    J. F. Gonthier, R. M. Richard, H. R. McAlexander, M. Saitow, X. Wang,
    P. Verma, M. H. Lechner, A. Jiang, S. Behnle, A. G. Heide,
    M. F. Herbst, D. L. Poole, T. Győri, E. C. Mitchell, J. P. Pederson,
    and A. M. Wallace

             Previous Authors, Complete List of Code Contributors,
                       and Citations for Specific Modules
    https://github.com/psi4/psi4/blob/master/codemeta.json
    https://github.com/psi4/psi4/graphs/contributors
    https://psicode.org/psi4manual/master/introduction.html#citing-psifour

    -----------------------------------------------------------------------


    Psi4 started on: Monday, 15 June 2026 06:35AM

    Process ID: 215698
    Host:       kichot
    PSIDATADIR: /opt/psi4/share/psi4
    Memory:     1.9 GiB
    Threads:    1
    Addons:     a̶d̶c̶c̶, a̶m̶b̶i̶t̶, b̶s̶e̶, c̶c̶t̶3̶, c̶f̶o̶u̶r̶, c̶h̶e̶m̶p̶s̶2̶, c̶p̶p̶e̶, d̶d̶x̶,
                d̶f̶t̶d̶3̶, d̶f̶t̶d̶4̶, d̶k̶h̶, e̶c̶p̶i̶n̶t̶, e̶i̶n̶s̶u̶m̶s̶, f̶o̶r̶t̶e̶,
                g̶a̶u̶x̶c̶, g̶c̶p̶, g̶d̶m̶a̶, g̶e̶o̶m̶e̶t̶r̶i̶c̶, g̶p̶u̶_̶d̶f̶c̶c̶,
                i̶n̶t̶e̶g̶r̶a̶t̶o̶r̶x̶x̶, i̶p̶i̶, l̶i̶b̶e̶f̶p̶, m̶d̶i̶, m̶p̶2̶d̶, m̶r̶c̶c̶,
                o̶o̶o̶, o̶p̶e̶n̶f̶e̶r̶m̶i̶o̶n̶p̶s̶i̶4̶, p̶c̶m̶s̶o̶l̶v̶e̶r̶,
                p̶s̶i̶4̶f̶o̶c̶k̶c̶i̶, p̶s̶i̶x̶a̶s̶, p̶y̶e̶i̶n̶s̶u̶m̶s̶, r̶e̶s̶p̶, s̶i̶m̶i̶n̶t̶,
                s̶n̶s̶m̶p̶2̶, v̶2̶r̶d̶m̶_̶c̶a̶s̶s̶c̶f̶

  ==> Input QCSchema <==

--------------------------------------------------------------------------
{'driver': 'energy',
 'extras': {'psiapi': True, 'wfn_qcvars_only': True},
 'id': None,
 'keywords': {'function_kwargs': {}},
 'model': {'basis': 'aug-cc-pvqz', 'method': 'scf'},
 'molecule': {'atom_labels': ['', ''],
              'atomic_numbers': [2, 3],
              'extras': {},
              'fix_com': True,
              'fix_orientation': True,
              'fragment_charges': [0.0, 0.0],
              'fragment_multiplicities': [1, 1],
              'fragments': [[0], [1]],
              'geometry': [0.0, 0.0, -6.617968087453, 0.0, 0.0, 3.7755256025651],
              'mass_numbers': [4, 7],
              'masses': [4.00260325413, 7.0160034366],
              'molecular_charge': 0.0,
              'molecular_multiplicity': 1,
              'name': 'He-Li+ ([0],[1])',
              'provenance': {'creator': 'QCElemental',
                             'routine': 'qcelemental.molparse.from_schema',
                             'version': '0.29.0'},
              'real': [True, False],
              'schema_name': 'qcschema_molecule',
              'schema_version': 2,
              'symbols': ['He', 'Li'],
              'validated': True},
 'protocols': {'stdout': True},
 'provenance': {'creator': 'QCElemental', 'routine': 'qcelemental.models.results', 'version': '0.29.0'},
 'schema_name': 'qcschema_input',
 'schema_version': 1}
--------------------------------------------------------------------------

Scratch directory: /scratch/lukasz/psi4/
   => Libint2 <=

    Primary   basis highest AM E, G, H:  5, 4, 3
    Auxiliary basis highest AM E, G, H:  6, 5, 4
    Onebody   basis highest AM E, G, H:  6, 5, 4
    Solid Harmonics ordering:            Gaussian

*** tstart() called on kichot
*** at Mon Jun 15 06:35:50 2026

   => Loading Basis Set <=

    Name: AUG-CC-PVQZ
    Role: ORBITAL
    Keyword: BASIS
    atoms 1 entry HE         line    72 file /opt/psi4/share/psi4/basis/aug-cc-pvqz.gbs 
    atoms 2 entry LI         line   105 file /opt/psi4/share/psi4/basis/aug-cc-pvqz.gbs 


         ---------------------------------------------------------
                                   SCF
               by Justin Turney, Rob Parrish, Andy Simmonett
                          and Daniel G. A. Smith
                              RHF Reference
                        1 Threads,   1907 MiB Core
         ---------------------------------------------------------

  ==> Geometry <==

    Molecular point group: c2v
    Full point group: C_inf_v

    Geometry (in Bohr), charge = 0, multiplicity = 1:

       Center              X                  Y                   Z               Mass       
    ------------   -----------------  -----------------  -----------------  -----------------
         HE           0.000000000000     0.000000000000    -6.617968087453     4.002603254130
      Gh(LI)          0.000000000000     0.000000000000     3.775525602565     7.016003436600

  Running in c2v symmetry.

  Rotational constants: A = ************  B =      0.21866  C =      0.21866 [cm^-1]
  Rotational constants: A = ************  B =   6555.20329  C =   6555.20329 [MHz]
  Nuclear repulsion =    0.000000000000000

  Charge       = 0
  Multiplicity = 1
  Electrons    = 2
  Nalpha       = 1
  Nbeta        = 1

  ==> Algorithm <==

  SCF Algorithm Type is DF.
  DIIS enabled.
  MOM disabled.
  Fractional occupation disabled.
  Guess Type is SAD.
  Energy threshold   = 1.00e-06
  Density threshold  = 1.00e-06
  Integral threshold = 1.00e-12

  ==> Primary Basis <==

  Basis Set: AUG-CC-PVQZ
    Blend: AUG-CC-PVQZ
    Number of shells: 34
    Number of basis functions: 126
    Number of Cartesian functions: 160
    Spherical Harmonics?: true
    Max angular momentum: 4

   => Loading Basis Set <=

    Name: (AUG-CC-PVQZ AUX)
    Role: JKFIT
    Keyword: DF_BASIS_SCF
    atoms 1 entry HE         line    34 file /opt/psi4/share/psi4/basis/def2-universal-jkfit.gbs 
    atoms 2 entry LI         line    54 file /opt/psi4/share/psi4/basis/def2-universal-jkfit.gbs 

  ==> Integral Setup <==

  DFHelper Memory: AOs need 0.011 GiB; user supplied 1.397 GiB. 
  SCF_SUBTYPE=INCORE selected. In-core MEM_DF algorithm will be used.
  Using in-core AOs.

  ==> MemDFJK: Density-Fitted J/K Matrices <==

    J tasked:                   Yes
    K tasked:                   Yes
    wK tasked:                   No
    OpenMP threads:               1
    Memory [MiB]:              1430
    Algorithm:                 Core
    Schwarz Cutoff:           1E-12
    Mask sparsity (%):       1.7007
    Fitting Condition:        1E-10

   => Auxiliary Basis Set <=

  Basis Set: (AUG-CC-PVQZ AUX)
    Blend: DEF2-UNIVERSAL-JKFIT
    Number of shells: 26
    Number of basis functions: 74
    Number of Cartesian functions: 85
    Spherical Harmonics?: true
    Max angular momentum: 3

  Minimum eigenvalue in the overlap matrix is 1.0366858895E-03.
  Reciprocal condition number of the overlap matrix is 2.4965897765E-04.
    Using symmetric orthogonalization.

  ==> Pre-Iterations <==

  SCF Guess: Superposition of Atomic Densities via on-the-fly atomic UHF (no occupation information).

   -------------------------
    Irrep   Nso     Nmo    
   -------------------------
     A1        50      50 
     A2        16      16 
     B1        30      30 
     B2        30      30 
   -------------------------
    Total     126     126
   -------------------------

  ==> Iterations <==

                           Total Energy        Delta E     RMS |[F,P]|

   @DF-RHF iter SAD:    -2.86154422537171   -2.86154e+00   0.00000e+00 
   @DF-RHF iter   1:    -2.86154464337945   -4.18008e-07   1.36972e-06 DIIS
   @DF-RHF iter   2:    -2.86154465150802   -8.12857e-09   2.15110e-07 DIIS
  Energy and wave function converged.


  ==> Post-Iterations <==

    Orbital Energies [Eh]
    ---------------------

    Doubly Occupied:                                                      

       1A1    -0.917938  

    Virtual:                                                              

       2A1     0.008642     1B1     0.015789     1B2     0.015789  
       3A1     0.017051     4A1     0.043137     2B1     0.058831  
       2B2     0.058831     5A1     0.059765     3B1     0.083673  
       3B2     0.083673     1A2     0.083882     6A1     0.083882  
       7A1     0.089239     8A1     0.135570     9A1     0.140920  
       4B1     0.167840     4B2     0.167840    10A1     0.168636  
       5B1     0.200912     5B2     0.200912    11A1     0.203209  
       2A2     0.203209     6B2     0.203250     6B1     0.203250  
      12A1     0.213463     7B1     0.268576     7B2     0.268576  
       3A2     0.269195    13A1     0.269195    14A1     0.277223  
       8B1     0.363940     8B2     0.363940    15A1     0.368434  
      16A1     0.409029     9B1     0.468617     9B2     0.468617  
      17A1     0.473871     4A2     0.535367    18A1     0.535367  
      10B1     0.535386    10B2     0.535386    19A1     0.535390  
       5A2     0.535390    11B1     0.536812    11B2     0.536812  
      20A1     0.553986     6A2     0.582162    21A1     0.582162  
      12B1     0.582188    12B2     0.582188    13B2     0.585912  
      13B1     0.585912    22A1     0.620429     7A2     0.697303  
      23A1     0.697303    14B1     0.697795    14B2     0.697795  
      24A1     0.699492    25A1     0.725091     8A2     1.150556  
      26A1     1.150556    15B2     1.155764    15B1     1.155764  
      27A1     1.164577    16B2     1.421175    16B1     1.421175  
      17B1     1.421897    17B2     1.421897     9A2     1.421991  
      28A1     1.421991    29A1     1.434008    30A1     1.464516  
      18B2     1.484682    18B1     1.484682    31A1     1.487778  
      10A2     1.508937    32A1     1.508937    19B1     1.508940  
      19B2     1.508940    33A1     1.508952    11A2     1.508952  
      20B2     1.516573    20B1     1.516573    34A1     1.588943  
      35A1     1.755265    12A2     1.755265    21B1     1.755688  
      21B2     1.755688    36A1     1.762955    22B1     1.820375  
      22B2     1.820375    37A1     1.826314    38A1     2.987458  
      23B1     3.017228    23B2     3.017228    39A1     3.017299  
      13A2     3.017299    24B2     3.017739    24B1     3.017739  
      40A1     3.018512    41A1     4.588436    14A2     4.588436  
      25B2     4.591632    25B1     4.591632    42A1     4.597461  
      26B1     5.139103    26B2     5.139103    43A1     5.188774  
      44A1    10.213234    27B1    12.577070    27B2    12.577070  
      45A1    12.577088    15A2    12.577088    28B1    12.577218  
      28B2    12.577218    46A1    12.577428    47A1    13.652382  
      16A2    16.645565    48A1    16.645565    29B1    16.647297  
      29B2    16.647297    49A1    16.650510    30B2    18.098545  
      30B1    18.098545    50A1    18.135012  

    Final Occupation by Irrep:
             A1    A2    B1    B2 
    DOCC [     1,    0,    0,    0 ]
    NA   [     1,    0,    0,    0 ]
    NB   [     1,    0,    0,    0 ]

  @DF-RHF Final Energy:    -2.86154465150802

   => Energetics <=

    Nuclear Repulsion Energy =              0.0000000000000000
    One-Electron Energy =                  -3.8872126328129637
    Two-Electron Energy =                   1.0256679813049423
    Total Energy =                         -2.8615446515080212

Computation Completed


Properties will be evaluated at   0.000000,   0.000000,   0.000000 [a0]

Properties computed using the SCF density matrix


 Multipole Moments:

 ------------------------------------------------------------------------------------
     Multipole            Electronic (a.u.)      Nuclear  (a.u.)        Total (a.u.)
 ------------------------------------------------------------------------------------

 L = 1.  Multiply by 2.5417464519 to convert [e a0] to [Debye]
 Dipole X            :          0.0000000            0.0000000            0.0000000
 Dipole Y            :          0.0000000            0.0000000            0.0000000
 Dipole Z            :         13.2359289          -13.2359362           -0.0000073
 Magnitude           :                                                    0.0000073

 ------------------------------------------------------------------------------------

*** tstop() called on kichot at Mon Jun 15 06:35:50 2026
Module time:
	user time   =       0.31 seconds =       0.01 minutes
	system time =       0.02 seconds =       0.00 minutes
	total time  =          0 seconds =       0.00 minutes
Total time:
	user time   =      11.53 seconds =       0.19 minutes
	system time =       0.29 seconds =       0.00 minutes
	total time  =         12 seconds =       0.20 minutes

    Psi4 stopped on: Monday, 15 June 2026 06:35AM
    Psi4 wall time for execution: 0:00:00.36


    -----------------------------------------------------------------------
          Psi4: An Open-Source Ab Initio Electronic Structure Package
                               Psi4 1.11a1.dev42 

                         Git: Rev {master} 144882d 


    D. G. A. Smith, L. A. Burns, A. C. Simmonett, R. M. Parrish,
    M. C. Schieber, R. Galvelis, P. Kraus, H. Kruse, R. Di Remigio,
    A. Alenaizan, A. M. James, S. Lehtola, J. P. Misiewicz, M. Scheurer,
    R. A. Shaw, J. B. Schriber, Y. Xie, Z. L. Glick, D. A. Sirianni,
    J. S. O'Brien, J. M. Waldrop, A. Kumar, E. G. Hohenstein,
    B. P. Pritchard, B. R. Brooks, H. F. Schaefer III, A. Yu. Sokolov,
    K. Patkowski, A. E. DePrince III, U. Bozkaya, R. A. King,
    F. A. Evangelista, J. M. Turney, T. D. Crawford, C. D. Sherrill,
    J. Chem. Phys. 152(18) 184108 (2020). https://doi.org/10.1063/5.0006002

                            Additional Code Authors
    E. T. Seidl, C. L. Janssen, E. F. Valeev, M. L. Leininger,
    J. F. Gonthier, R. M. Richard, H. R. McAlexander, M. Saitow, X. Wang,
    P. Verma, M. H. Lechner, A. Jiang, S. Behnle, A. G. Heide,
    M. F. Herbst, D. L. Poole, T. Győri, E. C. Mitchell, J. P. Pederson,
    and A. M. Wallace

             Previous Authors, Complete List of Code Contributors,
                       and Citations for Specific Modules
    https://github.com/psi4/psi4/blob/master/codemeta.json
    https://github.com/psi4/psi4/graphs/contributors
    https://psicode.org/psi4manual/master/introduction.html#citing-psifour

    -----------------------------------------------------------------------


    Psi4 started on: Monday, 15 June 2026 06:35AM

    Process ID: 215698
    Host:       kichot
    PSIDATADIR: /opt/psi4/share/psi4
    Memory:     1.9 GiB
    Threads:    1
    Addons:     a̶d̶c̶c̶, a̶m̶b̶i̶t̶, b̶s̶e̶, c̶c̶t̶3̶, c̶f̶o̶u̶r̶, c̶h̶e̶m̶p̶s̶2̶, c̶p̶p̶e̶, d̶d̶x̶,
                d̶f̶t̶d̶3̶, d̶f̶t̶d̶4̶, d̶k̶h̶, e̶c̶p̶i̶n̶t̶, e̶i̶n̶s̶u̶m̶s̶, f̶o̶r̶t̶e̶,
                g̶a̶u̶x̶c̶, g̶c̶p̶, g̶d̶m̶a̶, g̶e̶o̶m̶e̶t̶r̶i̶c̶, g̶p̶u̶_̶d̶f̶c̶c̶,
                i̶n̶t̶e̶g̶r̶a̶t̶o̶r̶x̶x̶, i̶p̶i̶, l̶i̶b̶e̶f̶p̶, m̶d̶i̶, m̶p̶2̶d̶, m̶r̶c̶c̶,
                o̶o̶o̶, o̶p̶e̶n̶f̶e̶r̶m̶i̶o̶n̶p̶s̶i̶4̶, p̶c̶m̶s̶o̶l̶v̶e̶r̶,
                p̶s̶i̶4̶f̶o̶c̶k̶c̶i̶, p̶s̶i̶x̶a̶s̶, p̶y̶e̶i̶n̶s̶u̶m̶s̶, r̶e̶s̶p̶, s̶i̶m̶i̶n̶t̶,
                s̶n̶s̶m̶p̶2̶, v̶2̶r̶d̶m̶_̶c̶a̶s̶s̶c̶f̶

  ==> Input QCSchema <==

--------------------------------------------------------------------------
{'driver': 'energy',
 'extras': {'psiapi': True, 'wfn_qcvars_only': True},
 'id': None,
 'keywords': {'function_kwargs': {}},
 'model': {'basis': 'aug-cc-pvqz', 'method': 'scf'},
 'molecule': {'atom_labels': ['', ''],
              'atomic_numbers': [2, 3],
              'extras': {},
              'fix_com': True,
              'fix_orientation': True,
              'fragment_charges': [0.0, 1.0],
              'fragment_multiplicities': [1, 1],
              'fragments': [[0], [1]],
              'geometry': [0.0, 0.0, -6.617968087453, 0.0, 0.0, 3.7755256025651],
              'mass_numbers': [4, 7],
              'masses': [4.00260325413, 7.0160034366],
              'molecular_charge': 1.0,
              'molecular_multiplicity': 1,
              'name': 'He-Li+ ([0, 1],[])',
              'provenance': {'creator': 'QCElemental',
                             'routine': 'qcelemental.molparse.from_schema',
                             'version': '0.29.0'},
              'real': [True, True],
              'schema_name': 'qcschema_molecule',
              'schema_version': 2,
              'symbols': ['He', 'Li'],
              'validated': True},
 'protocols': {'stdout': True},
 'provenance': {'creator': 'QCElemental', 'routine': 'qcelemental.models.results', 'version': '0.29.0'},
 'schema_name': 'qcschema_input',
 'schema_version': 1}
--------------------------------------------------------------------------

Scratch directory: /scratch/lukasz/psi4/
   => Libint2 <=

    Primary   basis highest AM E, G, H:  5, 4, 3
    Auxiliary basis highest AM E, G, H:  6, 5, 4
    Onebody   basis highest AM E, G, H:  6, 5, 4
    Solid Harmonics ordering:            Gaussian

*** tstart() called on kichot
*** at Mon Jun 15 06:35:50 2026

   => Loading Basis Set <=

    Name: AUG-CC-PVQZ
    Role: ORBITAL
    Keyword: BASIS
    atoms 1 entry HE         line    72 file /opt/psi4/share/psi4/basis/aug-cc-pvqz.gbs 
    atoms 2 entry LI         line   105 file /opt/psi4/share/psi4/basis/aug-cc-pvqz.gbs 


         ---------------------------------------------------------
                                   SCF
               by Justin Turney, Rob Parrish, Andy Simmonett
                          and Daniel G. A. Smith
                              RHF Reference
                        1 Threads,   1907 MiB Core
         ---------------------------------------------------------

  ==> Geometry <==

    Molecular point group: c2v
    Full point group: C_inf_v

    Geometry (in Bohr), charge = 1, multiplicity = 1:

       Center              X                  Y                   Z               Mass       
    ------------   -----------------  -----------------  -----------------  -----------------
         HE           0.000000000000     0.000000000000    -6.617968087453     4.002603254130
         LI           0.000000000000     0.000000000000     3.775525602565     7.016003436600

  Running in c2v symmetry.

  Rotational constants: A = ************  B =      0.21866  C =      0.21866 [cm^-1]
  Rotational constants: A = ************  B =   6555.20329  C =   6555.20329 [MHz]
  Nuclear repulsion =    0.577284229821816

  Charge       = 1
  Multiplicity = 1
  Electrons    = 4
  Nalpha       = 2
  Nbeta        = 2

  ==> Algorithm <==

  SCF Algorithm Type is DF.
  DIIS enabled.
  MOM disabled.
  Fractional occupation disabled.
  Guess Type is SAD.
  Energy threshold   = 1.00e-06
  Density threshold  = 1.00e-06
  Integral threshold = 1.00e-12

  ==> Primary Basis <==

  Basis Set: AUG-CC-PVQZ
    Blend: AUG-CC-PVQZ
    Number of shells: 34
    Number of basis functions: 126
    Number of Cartesian functions: 160
    Spherical Harmonics?: true
    Max angular momentum: 4

   => Loading Basis Set <=

    Name: (AUG-CC-PVQZ AUX)
    Role: JKFIT
    Keyword: DF_BASIS_SCF
    atoms 1 entry HE         line    34 file /opt/psi4/share/psi4/basis/def2-universal-jkfit.gbs 
    atoms 2 entry LI         line    54 file /opt/psi4/share/psi4/basis/def2-universal-jkfit.gbs 

  ==> Integral Setup <==

  DFHelper Memory: AOs need 0.011 GiB; user supplied 1.397 GiB. 
  SCF_SUBTYPE=INCORE selected. In-core MEM_DF algorithm will be used.
  Using in-core AOs.

  ==> MemDFJK: Density-Fitted J/K Matrices <==

    J tasked:                   Yes
    K tasked:                   Yes
    wK tasked:                   No
    OpenMP threads:               1
    Memory [MiB]:              1430
    Algorithm:                 Core
    Schwarz Cutoff:           1E-12
    Mask sparsity (%):       1.7007
    Fitting Condition:        1E-10

   => Auxiliary Basis Set <=

  Basis Set: (AUG-CC-PVQZ AUX)
    Blend: DEF2-UNIVERSAL-JKFIT
    Number of shells: 26
    Number of basis functions: 74
    Number of Cartesian functions: 85
    Spherical Harmonics?: true
    Max angular momentum: 3

  Minimum eigenvalue in the overlap matrix is 1.0366858895E-03.
  Reciprocal condition number of the overlap matrix is 2.4965897765E-04.
    Using symmetric orthogonalization.

  ==> Pre-Iterations <==

  SCF Guess: Superposition of Atomic Densities via on-the-fly atomic UHF (no occupation information).

   -------------------------
    Irrep   Nso     Nmo    
   -------------------------
     A1        50      50 
     A2        16      16 
     B1        30      30 
     B2        30      30 
   -------------------------
    Total     126     126
   -------------------------

  ==> Iterations <==

                           Total Energy        Delta E     RMS |[F,P]|

   @DF-RHF iter SAD:   -10.15362705841873   -1.01536e+01   0.00000e+00 
   @DF-RHF iter   1:   -10.09787439255454    5.57527e-02   1.63853e-04 ADIIS/DIIS
   @DF-RHF iter   2:   -10.09798237183624   -1.07979e-04   3.87009e-05 DIIS
   @DF-RHF iter   3:   -10.09798896180522   -6.58997e-06   2.83549e-06 DIIS
   @DF-RHF iter   4:   -10.09798899304058   -3.12354e-08   2.39478e-07 DIIS
  Energy and wave function converged.


  ==> Post-Iterations <==

    Orbital Energies [Eh]
    ---------------------

    Doubly Occupied:                                                      

       1A1    -2.792239     2A1    -1.014210  

    Virtual:                                                              

       3A1    -0.196158     1B1    -0.128521     1B2    -0.128521  
       4A1    -0.128132     5A1    -0.072772     2B1    -0.056700  
       2B2    -0.056700     6A1    -0.055366     3B1    -0.046227  
       3B2    -0.046227     1A2    -0.046124     7A1    -0.046124  
       8A1    -0.041659     9A1    -0.021817     4B1    -0.014356  
       4B2    -0.014356    10A1    -0.013681    11A1     0.040839  
       5B1     0.053773     5B2     0.053773     2A2     0.054836  
      12A1     0.054836     6B1     0.054855     6B2     0.054855  
      13A1     0.067014     7B2     0.074931     7B1     0.074931  
      14A1     0.075135     3A2     0.075135    15A1     0.094808  
       8B2     0.134305     8B1     0.134305    16A1     0.134864  
      17A1     0.169468     9B2     0.262183     9B1     0.262183  
      18A1     0.280610     4A2     0.340359    19A1     0.340359  
       5A2     0.340368    20A1     0.340368    10B2     0.340369  
      10B1     0.340369    11B1     0.342561    11B2     0.342561  
      21A1     0.351901     6A2     0.357560    22A1     0.357560  
      12B1     0.357563    12B2     0.357563    13B1     0.365188  
      13B2     0.365188    23A1     0.403176     7A2     0.403176  
      14B1     0.404175    14B2     0.404175    24A1     0.410398  
      25A1     0.428202    26A1     0.629456    27A1     0.841413  
      15B1     0.841471    15B2     0.841471    16B1     1.045147  
      16B2     1.045147     8A2     1.053090    28A1     1.053090  
      29A1     1.060790    17B2     1.061601    17B1     1.061601  
       9A2     1.064224    30A1     1.064224    18B1     1.076695  
      18B2     1.076695    31A1     1.078222    10A2     1.190033  
      32A1     1.190033    19B1     1.190044    19B2     1.190044  
      11A2     1.190083    33A1     1.190083    20B2     1.190995  
      20B1     1.190995    34A1     1.199211    35A1     1.245816  
      12A2     1.245816    21B1     1.246023    21B2     1.246023  
      36A1     1.253146    22B2     1.393788    22B1     1.393788  
      37A1     1.467223    38A1     2.730129    39A1     2.891960  
      23B2     2.920935    23B1     2.920935    40A1     2.921109  
      13A2     2.921109    41A1     2.921520    24B1     2.921947  
      24B2     2.921947    42A1     4.492652    14A2     4.492652  
      25B2     4.495107    25B1     4.495107    43A1     4.500442  
      26B1     5.043134    26B2     5.043134    44A1     5.091787  
      27B1    12.480796    27B2    12.480796    45A1    12.480819  
      15A2    12.480819    46A1    12.480946    28B1    12.481045  
      28B2    12.481045    47A1    13.556223    16A2    16.549415  
      48A1    16.549415    29B1    16.550936    29B2    16.550936  
      49A1    16.554041    30B2    18.002333    30B1    18.002333  
      50A1    18.038518  

    Final Occupation by Irrep:
             A1    A2    B1    B2 
    DOCC [     2,    0,    0,    0 ]
    NA   [     2,    0,    0,    0 ]
    NB   [     2,    0,    0,    0 ]

  @DF-RHF Final Energy:   -10.09798899304058

   => Energetics <=

    Nuclear Repulsion Energy =              0.5772842298218156
    One-Electron Energy =                 -13.7376515520341389
    Two-Electron Energy =                   3.0623783291717479
    Total Energy =                        -10.0979889930405751

Computation Completed


Properties will be evaluated at   0.000000,   0.000000,   0.000000 [a0]

Properties computed using the SCF density matrix


 Multipole Moments:

 ------------------------------------------------------------------------------------
     Multipole            Electronic (a.u.)      Nuclear  (a.u.)        Total (a.u.)
 ------------------------------------------------------------------------------------

 L = 1.  Multiply by 2.5417464519 to convert [e a0] to [Debye]
 Dipole X            :          0.0000000            0.0000000            0.0000000
 Dipole Y            :          0.0000000            0.0000000            0.0000000
 Dipole Z            :          5.6725373           -1.9093594            3.7631780
 Magnitude           :                                                    3.7631780

 ------------------------------------------------------------------------------------

*** tstop() called on kichot at Mon Jun 15 06:35:51 2026
Module time:
	user time   =       0.47 seconds =       0.01 minutes
	system time =       0.02 seconds =       0.00 minutes
	total time  =          1 seconds =       0.02 minutes
Total time:
	user time   =      12.04 seconds =       0.20 minutes
	system time =       0.31 seconds =       0.01 minutes
	total time  =         13 seconds =       0.22 minutes

    Psi4 stopped on: Monday, 15 June 2026 06:35AM
    Psi4 wall time for execution: 0:00:00.52


  //>>>>>>>>>>>>>>>>>>>>>>>>>>>>>>>>>>>//
  //          ManyBody Results         //
  //<<<<<<<<<<<<<<<<<<<<<<<<<<<<<<<<<<<//


   ==> N-Body: Counterpoise Corrected (CP) energies <==

              MC n-Body  Total Energy            Interaction Energy                          N-body Contribution to Interaction Energy
                         [Eh]                    [Eh]                  [kcal/mol]            [Eh]                  [kcal/mol]
              §A  1        N/A                   0.000000000000        0.000000000000        0.000000000000        0.000000000000
     FULL/RTN §A  2        N/A                  -0.000057993669       -0.036391576613       -0.000057993669       -0.036391576613

   MC Legend: §A: "(auto)"


Scratch directory: /scratch/lukasz/psi4/

  //>>>>>>>>>>>>>>>>>>>>>>>>>>>>>>>>>>>//
  //   ManyBody Setup: N-Body Levels 2 //
  //<<<<<<<<<<<<<<<<<<<<<<<<<<<<<<<<<<<//

    Model chemistry "(auto)" (§A):          3
        Number of 1-body computations:      2 (nocp: 0, cp: 2, vmfc_compute: 0)
        Number of 2-body computations:      1 (nocp: 0, cp: 1, vmfc_compute: 0)

    -----------------------------------------------------------------------
          Psi4: An Open-Source Ab Initio Electronic Structure Package
                               Psi4 1.11a1.dev42 

                         Git: Rev {master} 144882d 


    D. G. A. Smith, L. A. Burns, A. C. Simmonett, R. M. Parrish,
    M. C. Schieber, R. Galvelis, P. Kraus, H. Kruse, R. Di Remigio,
    A. Alenaizan, A. M. James, S. Lehtola, J. P. Misiewicz, M. Scheurer,
    R. A. Shaw, J. B. Schriber, Y. Xie, Z. L. Glick, D. A. Sirianni,
    J. S. O'Brien, J. M. Waldrop, A. Kumar, E. G. Hohenstein,
    B. P. Pritchard, B. R. Brooks, H. F. Schaefer III, A. Yu. Sokolov,
    K. Patkowski, A. E. DePrince III, U. Bozkaya, R. A. King,
    F. A. Evangelista, J. M. Turney, T. D. Crawford, C. D. Sherrill,
    J. Chem. Phys. 152(18) 184108 (2020). https://doi.org/10.1063/5.0006002

                            Additional Code Authors
    E. T. Seidl, C. L. Janssen, E. F. Valeev, M. L. Leininger,
    J. F. Gonthier, R. M. Richard, H. R. McAlexander, M. Saitow, X. Wang,
    P. Verma, M. H. Lechner, A. Jiang, S. Behnle, A. G. Heide,
    M. F. Herbst, D. L. Poole, T. Győri, E. C. Mitchell, J. P. Pederson,
    and A. M. Wallace

             Previous Authors, Complete List of Code Contributors,
                       and Citations for Specific Modules
    https://github.com/psi4/psi4/blob/master/codemeta.json
    https://github.com/psi4/psi4/graphs/contributors
    https://psicode.org/psi4manual/master/introduction.html#citing-psifour

    -----------------------------------------------------------------------


    Psi4 started on: Monday, 15 June 2026 06:35AM

    Process ID: 215698
    Host:       kichot
    PSIDATADIR: /opt/psi4/share/psi4
    Memory:     1.9 GiB
    Threads:    1
    Addons:     a̶d̶c̶c̶, a̶m̶b̶i̶t̶, b̶s̶e̶, c̶c̶t̶3̶, c̶f̶o̶u̶r̶, c̶h̶e̶m̶p̶s̶2̶, c̶p̶p̶e̶, d̶d̶x̶,
                d̶f̶t̶d̶3̶, d̶f̶t̶d̶4̶, d̶k̶h̶, e̶c̶p̶i̶n̶t̶, e̶i̶n̶s̶u̶m̶s̶, f̶o̶r̶t̶e̶,
                g̶a̶u̶x̶c̶, g̶c̶p̶, g̶d̶m̶a̶, g̶e̶o̶m̶e̶t̶r̶i̶c̶, g̶p̶u̶_̶d̶f̶c̶c̶,
                i̶n̶t̶e̶g̶r̶a̶t̶o̶r̶x̶x̶, i̶p̶i̶, l̶i̶b̶e̶f̶p̶, m̶d̶i̶, m̶p̶2̶d̶, m̶r̶c̶c̶,
                o̶o̶o̶, o̶p̶e̶n̶f̶e̶r̶m̶i̶o̶n̶p̶s̶i̶4̶, p̶c̶m̶s̶o̶l̶v̶e̶r̶,
                p̶s̶i̶4̶f̶o̶c̶k̶c̶i̶, p̶s̶i̶x̶a̶s̶, p̶y̶e̶i̶n̶s̶u̶m̶s̶, r̶e̶s̶p̶, s̶i̶m̶i̶n̶t̶,
                s̶n̶s̶m̶p̶2̶, v̶2̶r̶d̶m̶_̶c̶a̶s̶s̶c̶f̶

  ==> Input QCSchema <==

--------------------------------------------------------------------------
{'driver': 'energy',
 'extras': {'psiapi': True, 'wfn_qcvars_only': True},
 'id': None,
 'keywords': {'function_kwargs': {}},
 'model': {'basis': 'aug-cc-pvqz', 'method': 'mp2'},
 'molecule': {'atom_labels': ['', ''],
              'atomic_numbers': [2, 3],
              'extras': {},
              'fix_com': True,
              'fix_orientation': True,
              'fragment_charges': [0.0, 1.0],
              'fragment_multiplicities': [1, 1],
              'fragments': [[0], [1]],
              'geometry': [0.0, 0.0, -6.617968087453, 0.0, 0.0, 3.7755256025651],
              'mass_numbers': [4, 7],
              'masses': [4.00260325413, 7.0160034366],
              'molecular_charge': 1.0,
              'molecular_multiplicity': 1,
              'name': 'He-Li+ ([1],[0])',
              'provenance': {'creator': 'QCElemental',
                             'routine': 'qcelemental.molparse.from_schema',
                             'version': '0.29.0'},
              'real': [False, True],
              'schema_name': 'qcschema_molecule',
              'schema_version': 2,
              'symbols': ['He', 'Li'],
              'validated': True},
 'protocols': {'stdout': True},
 'provenance': {'creator': 'QCElemental', 'routine': 'qcelemental.models.results', 'version': '0.29.0'},
 'schema_name': 'qcschema_input',
 'schema_version': 1}
--------------------------------------------------------------------------

Scratch directory: /scratch/lukasz/psi4/
    SCF Algorithm Type (re)set to DF.
   => Libint2 <=

    Primary   basis highest AM E, G, H:  5, 4, 3
    Auxiliary basis highest AM E, G, H:  6, 5, 4
    Onebody   basis highest AM E, G, H:  6, 5, 4
    Solid Harmonics ordering:            Gaussian

*** tstart() called on kichot
*** at Mon Jun 15 06:35:51 2026

   => Loading Basis Set <=

    Name: AUG-CC-PVQZ
    Role: ORBITAL
    Keyword: BASIS
    atoms 1 entry HE         line    72 file /opt/psi4/share/psi4/basis/aug-cc-pvqz.gbs 
    atoms 2 entry LI         line   105 file /opt/psi4/share/psi4/basis/aug-cc-pvqz.gbs 


         ---------------------------------------------------------
                                   SCF
               by Justin Turney, Rob Parrish, Andy Simmonett
                          and Daniel G. A. Smith
                              RHF Reference
                        1 Threads,   1907 MiB Core
         ---------------------------------------------------------

  ==> Geometry <==

    Molecular point group: c2v
    Full point group: C_inf_v

    Geometry (in Bohr), charge = 1, multiplicity = 1:

       Center              X                  Y                   Z               Mass       
    ------------   -----------------  -----------------  -----------------  -----------------
      Gh(HE)          0.000000000000     0.000000000000    -6.617968087453     4.002603254130
         LI           0.000000000000     0.000000000000     3.775525602565     7.016003436600

  Running in c2v symmetry.

  Rotational constants: A = ************  B =      0.21866  C =      0.21866 [cm^-1]
  Rotational constants: A = ************  B =   6555.20329  C =   6555.20329 [MHz]
  Nuclear repulsion =    0.000000000000000

  Charge       = 1
  Multiplicity = 1
  Electrons    = 2
  Nalpha       = 1
  Nbeta        = 1

  ==> Algorithm <==

  SCF Algorithm Type is DF.
  DIIS enabled.
  MOM disabled.
  Fractional occupation disabled.
  Guess Type is SAD.
  Energy threshold   = 1.00e-08
  Density threshold  = 1.00e-08
  Integral threshold = 1.00e-12

  ==> Primary Basis <==

  Basis Set: AUG-CC-PVQZ
    Blend: AUG-CC-PVQZ
    Number of shells: 34
    Number of basis functions: 126
    Number of Cartesian functions: 160
    Spherical Harmonics?: true
    Max angular momentum: 4

   => Loading Basis Set <=

    Name: (AUG-CC-PVQZ AUX)
    Role: JKFIT
    Keyword: DF_BASIS_SCF
    atoms 1 entry HE         line    34 file /opt/psi4/share/psi4/basis/def2-universal-jkfit.gbs 
    atoms 2 entry LI         line    54 file /opt/psi4/share/psi4/basis/def2-universal-jkfit.gbs 

  ==> Integral Setup <==

  DFHelper Memory: AOs need 0.011 GiB; user supplied 1.397 GiB. 
  SCF_SUBTYPE=INCORE selected. In-core MEM_DF algorithm will be used.
  Using in-core AOs.

  ==> MemDFJK: Density-Fitted J/K Matrices <==

    J tasked:                   Yes
    K tasked:                   Yes
    wK tasked:                   No
    OpenMP threads:               1
    Memory [MiB]:              1430
    Algorithm:                 Core
    Schwarz Cutoff:           1E-12
    Mask sparsity (%):       1.7007
    Fitting Condition:        1E-10

   => Auxiliary Basis Set <=

  Basis Set: (AUG-CC-PVQZ AUX)
    Blend: DEF2-UNIVERSAL-JKFIT
    Number of shells: 26
    Number of basis functions: 74
    Number of Cartesian functions: 85
    Spherical Harmonics?: true
    Max angular momentum: 3

  Minimum eigenvalue in the overlap matrix is 1.0366858895E-03.
  Reciprocal condition number of the overlap matrix is 2.4965897765E-04.
    Using symmetric orthogonalization.

  ==> Pre-Iterations <==

  SCF Guess: Superposition of Atomic Densities via on-the-fly atomic UHF (no occupation information).

   -------------------------
    Irrep   Nso     Nmo    
   -------------------------
     A1        50      50 
     A2        16      16 
     B1        30      30 
     B2        30      30 
   -------------------------
    Total     126     126
   -------------------------

  ==> Iterations <==

                           Total Energy        Delta E     RMS |[F,P]|

   @DF-RHF iter SAD:    -7.28971671371103   -7.28972e+00   0.00000e+00 
   @DF-RHF iter   1:    -7.23638468405067    5.33320e-02   3.50771e-05 DIIS
   @DF-RHF iter   2:    -7.23638632971018   -1.64566e-06   3.19049e-06 DIIS
   @DF-RHF iter   3:    -7.23638634786372   -1.81535e-08   1.85186e-07 DIIS
   @DF-RHF iter   4:    -7.23638634792381   -6.00933e-11   9.43530e-10 DIIS
  Energy and wave function converged.


  ==> Post-Iterations <==

    Orbital Energies [Eh]
    ---------------------

    Doubly Occupied:                                                      

       1A1    -2.792355  

    Virtual:                                                              

       2A1    -0.196303     3A1    -0.128625     1B2    -0.128624  
       1B1    -0.128624     4A1    -0.073562     5A1    -0.056679  
       2B2    -0.056678     2B1    -0.056678     6A1    -0.047225  
       3B1    -0.046213     3B2    -0.046213     1A2    -0.046207  
       7A1    -0.046207     8A1    -0.021932     9A1    -0.014618  
       4B1    -0.014365     4B2    -0.014365    10A1     0.010966  
       5B1     0.053947     5B2     0.053947     2A2     0.054740  
      11A1     0.054740     6B1     0.054744     6B2     0.054744  
      12A1     0.064304     7B2     0.074960     7B1     0.074960  
       3A2     0.075056    13A1     0.075056    14A1     0.093788  
       8B1     0.134231     8B2     0.134231    15A1     0.134543  
      16A1     0.169300    17A1     0.274790     9B1     0.285393  
       9B2     0.285393    18A1     0.323123    19A1     0.340237  
       4A2     0.340237    10B2     0.340242    10B1     0.340242  
       5A2     0.340242    20A1     0.340242    11B2     0.343220  
      11B1     0.343220     6A2     0.357459    21A1     0.357459  
      12B1     0.357474    12B2     0.357474    22A1     0.358323  
      13B1     0.367925    13B2     0.367925    23A1     0.403071  
       7A2     0.403071    14B1     0.404290    14B2     0.404290  
      24A1     0.410471    25A1     0.444715    15B2     0.841372  
      15B1     0.841372    26A1     0.841759    16B1     1.054718  
      16B2     1.054718     8A2     1.060401    27A1     1.060401  
      17B2     1.061488    17B1     1.061488    28A1     1.074052  
       9A2     1.081943    29A1     1.081943    30A1     1.088050  
      18B1     1.092279    18B2     1.092279    31A1     1.189933  
      10A2     1.189933    19B1     1.189933    19B2     1.189933  
      11A2     1.189973    32A1     1.189973    20B1     1.191671  
      20B2     1.191671    33A1     1.204593    34A1     1.245711  
      12A2     1.245711    21B1     1.246015    21B2     1.246015  
      35A1     1.253140    36A1     1.311837    22B2     1.599564  
      22B1     1.599564    37A1     1.668736    38A1     2.730093  
      23B2     2.953565    23B1     2.953565    39A1     2.953764  
      13A2     2.953764    40A1     2.954124    24B2     2.954646  
      24B1     2.954646    41A1     4.518577    14A2     4.725527  
      42A1     4.725527    25B2     4.727960    25B1     4.727960  
      43A1     4.733577    26B1     5.782829    26B2     5.782829  
      44A1     5.830212    27B1    12.921710    27B2    12.921710  
      45A1    12.921756    15A2    12.921756    46A1    12.921853  
      28B1    12.922019    28B2    12.922019    16A2    17.808669  
      47A1    17.808669    29B1    17.810162    29B2    17.810162  
      48A1    17.813276    49A1    20.608992    30B2    20.661983  
      30B1    20.661983    50A1    20.701657  

    Final Occupation by Irrep:
             A1    A2    B1    B2 
    DOCC [     1,    0,    0,    0 ]
    NA   [     1,    0,    0,    0 ]
    NB   [     1,    0,    0,    0 ]

  @DF-RHF Final Energy:    -7.23638634792381

   => Energetics <=

    Nuclear Repulsion Energy =              0.0000000000000000
    One-Electron Energy =                  -8.8880634592034760
    Two-Electron Energy =                   1.6516771112796635
    Total Energy =                         -7.2363863479238120

Computation Completed


Properties will be evaluated at   0.000000,   0.000000,   0.000000 [a0]

Properties computed using the SCF density matrix


 Multipole Moments:

 ------------------------------------------------------------------------------------
     Multipole            Electronic (a.u.)      Nuclear  (a.u.)        Total (a.u.)
 ------------------------------------------------------------------------------------

 L = 1.  Multiply by 2.5417464519 to convert [e a0] to [Debye]
 Dipole X            :          0.0000000            0.0000000            0.0000000
 Dipole Y            :          0.0000000            0.0000000            0.0000000
 Dipole Z            :         -7.5510515           11.3265768            3.7755253
 Magnitude           :                                                    3.7755253

 ------------------------------------------------------------------------------------

*** tstop() called on kichot at Mon Jun 15 06:35:51 2026
Module time:
	user time   =       0.45 seconds =       0.01 minutes
	system time =       0.03 seconds =       0.00 minutes
	total time  =          0 seconds =       0.00 minutes
Total time:
	user time   =      12.59 seconds =       0.21 minutes
	system time =       0.34 seconds =       0.01 minutes
	total time  =         13 seconds =       0.22 minutes

*** tstart() called on kichot
*** at Mon Jun 15 06:35:51 2026


  //>>>>>>>>>>>>>>>>>>>>>>>>>>>>>>>>>>>//
  //               DFMP2               //
  //<<<<<<<<<<<<<<<<<<<<<<<<<<<<<<<<<<<//

   => Loading Basis Set <=

    Name: (AUG-CC-PVQZ AUX)
    Role: RIFIT
    Keyword: DF_BASIS_MP2
    atoms 1 entry HE         line    72 file /opt/psi4/share/psi4/basis/aug-cc-pvqz-ri.gbs 
    atoms 2 entry LI         line    90 file /opt/psi4/share/psi4/basis/def2-qzvpp-ri.gbs 

	 --------------------------------------------------------
	                          DF-MP2                         
	      2nd-Order Density-Fitted Moller-Plesset Theory     
	              RMP2 Wavefunction,   1 Threads             
	                                                         
	        Rob Parrish, Justin Turney, Andy Simmonett,      
	           Ed Hohenstein, and C. David Sherrill          
	 --------------------------------------------------------

   => Auxiliary Basis Set <=

  Basis Set: (AUG-CC-PVQZ AUX)
    Blend: AUG-CC-PVQZ-RI + DEF2-QZVPP-RI
    Number of shells: 45
    Number of basis functions: 163
    Number of Cartesian functions: 205
    Spherical Harmonics?: true
    Max angular momentum: 4

	 --------------------------------------------------------
	                 NBF =   126, NAUX =   163
	 --------------------------------------------------------
	   CLASS    FOCC     OCC    AOCC    AVIR     VIR    FVIR
	   PAIRS       0       1       1     125     125       0
	 --------------------------------------------------------

	-----------------------------------------------------------
	 ==================> DF-MP2 Energies <==================== 
	-----------------------------------------------------------
	 Reference Energy          =      -7.2363863479238120 [Eh]
	 Singles Energy            =      -0.0000000000000000 [Eh]
	 Same-Spin Energy          =      -0.0000000000000000 [Eh]
	 Opposite-Spin Energy      =      -0.0139360546700431 [Eh]
	 Correlation Energy        =      -0.0139360546700431 [Eh]
	 Total Energy              =      -7.2503224025938549 [Eh]
	-----------------------------------------------------------
	 ================> DF-SCS-MP2 Energies <================== 
	-----------------------------------------------------------
	 SCS Same-Spin Scale       =       0.3333333333333333 [-]
	 SCS Opposite-Spin Scale   =       1.2000000000000000 [-]
	 SCS Same-Spin Energy      =      -0.0000000000000000 [Eh]
	 SCS Opposite-Spin Energy  =      -0.0167232656040518 [Eh]
	 SCS Correlation Energy    =      -0.0167232656040518 [Eh]
	 SCS Total Energy          =      -7.2531096135278634 [Eh]
	-----------------------------------------------------------


*** tstop() called on kichot at Mon Jun 15 06:35:51 2026
Module time:
	user time   =       0.09 seconds =       0.00 minutes
	system time =       0.00 seconds =       0.00 minutes
	total time  =          0 seconds =       0.00 minutes
Total time:
	user time   =      12.68 seconds =       0.21 minutes
	system time =       0.34 seconds =       0.01 minutes
	total time  =         13 seconds =       0.22 minutes

    Psi4 stopped on: Monday, 15 June 2026 06:35AM
    Psi4 wall time for execution: 0:00:00.60


    -----------------------------------------------------------------------
          Psi4: An Open-Source Ab Initio Electronic Structure Package
                               Psi4 1.11a1.dev42 

                         Git: Rev {master} 144882d 


    D. G. A. Smith, L. A. Burns, A. C. Simmonett, R. M. Parrish,
    M. C. Schieber, R. Galvelis, P. Kraus, H. Kruse, R. Di Remigio,
    A. Alenaizan, A. M. James, S. Lehtola, J. P. Misiewicz, M. Scheurer,
    R. A. Shaw, J. B. Schriber, Y. Xie, Z. L. Glick, D. A. Sirianni,
    J. S. O'Brien, J. M. Waldrop, A. Kumar, E. G. Hohenstein,
    B. P. Pritchard, B. R. Brooks, H. F. Schaefer III, A. Yu. Sokolov,
    K. Patkowski, A. E. DePrince III, U. Bozkaya, R. A. King,
    F. A. Evangelista, J. M. Turney, T. D. Crawford, C. D. Sherrill,
    J. Chem. Phys. 152(18) 184108 (2020). https://doi.org/10.1063/5.0006002

                            Additional Code Authors
    E. T. Seidl, C. L. Janssen, E. F. Valeev, M. L. Leininger,
    J. F. Gonthier, R. M. Richard, H. R. McAlexander, M. Saitow, X. Wang,
    P. Verma, M. H. Lechner, A. Jiang, S. Behnle, A. G. Heide,
    M. F. Herbst, D. L. Poole, T. Győri, E. C. Mitchell, J. P. Pederson,
    and A. M. Wallace

             Previous Authors, Complete List of Code Contributors,
                       and Citations for Specific Modules
    https://github.com/psi4/psi4/blob/master/codemeta.json
    https://github.com/psi4/psi4/graphs/contributors
    https://psicode.org/psi4manual/master/introduction.html#citing-psifour

    -----------------------------------------------------------------------


    Psi4 started on: Monday, 15 June 2026 06:35AM

    Process ID: 215698
    Host:       kichot
    PSIDATADIR: /opt/psi4/share/psi4
    Memory:     1.9 GiB
    Threads:    1
    Addons:     a̶d̶c̶c̶, a̶m̶b̶i̶t̶, b̶s̶e̶, c̶c̶t̶3̶, c̶f̶o̶u̶r̶, c̶h̶e̶m̶p̶s̶2̶, c̶p̶p̶e̶, d̶d̶x̶,
                d̶f̶t̶d̶3̶, d̶f̶t̶d̶4̶, d̶k̶h̶, e̶c̶p̶i̶n̶t̶, e̶i̶n̶s̶u̶m̶s̶, f̶o̶r̶t̶e̶,
                g̶a̶u̶x̶c̶, g̶c̶p̶, g̶d̶m̶a̶, g̶e̶o̶m̶e̶t̶r̶i̶c̶, g̶p̶u̶_̶d̶f̶c̶c̶,
                i̶n̶t̶e̶g̶r̶a̶t̶o̶r̶x̶x̶, i̶p̶i̶, l̶i̶b̶e̶f̶p̶, m̶d̶i̶, m̶p̶2̶d̶, m̶r̶c̶c̶,
                o̶o̶o̶, o̶p̶e̶n̶f̶e̶r̶m̶i̶o̶n̶p̶s̶i̶4̶, p̶c̶m̶s̶o̶l̶v̶e̶r̶,
                p̶s̶i̶4̶f̶o̶c̶k̶c̶i̶, p̶s̶i̶x̶a̶s̶, p̶y̶e̶i̶n̶s̶u̶m̶s̶, r̶e̶s̶p̶, s̶i̶m̶i̶n̶t̶,
                s̶n̶s̶m̶p̶2̶, v̶2̶r̶d̶m̶_̶c̶a̶s̶s̶c̶f̶

  ==> Input QCSchema <==

--------------------------------------------------------------------------
{'driver': 'energy',
 'extras': {'psiapi': True, 'wfn_qcvars_only': True},
 'id': None,
 'keywords': {'function_kwargs': {}},
 'model': {'basis': 'aug-cc-pvqz', 'method': 'mp2'},
 'molecule': {'atom_labels': ['', ''],
              'atomic_numbers': [2, 3],
              'extras': {},
              'fix_com': True,
              'fix_orientation': True,
              'fragment_charges': [0.0, 0.0],
              'fragment_multiplicities': [1, 1],
              'fragments': [[0], [1]],
              'geometry': [0.0, 0.0, -6.617968087453, 0.0, 0.0, 3.7755256025651],
              'mass_numbers': [4, 7],
              'masses': [4.00260325413, 7.0160034366],
              'molecular_charge': 0.0,
              'molecular_multiplicity': 1,
              'name': 'He-Li+ ([0],[1])',
              'provenance': {'creator': 'QCElemental',
                             'routine': 'qcelemental.molparse.from_schema',
                             'version': '0.29.0'},
              'real': [True, False],
              'schema_name': 'qcschema_molecule',
              'schema_version': 2,
              'symbols': ['He', 'Li'],
              'validated': True},
 'protocols': {'stdout': True},
 'provenance': {'creator': 'QCElemental', 'routine': 'qcelemental.models.results', 'version': '0.29.0'},
 'schema_name': 'qcschema_input',
 'schema_version': 1}
--------------------------------------------------------------------------

Scratch directory: /scratch/lukasz/psi4/
    SCF Algorithm Type (re)set to DF.
   => Libint2 <=

    Primary   basis highest AM E, G, H:  5, 4, 3
    Auxiliary basis highest AM E, G, H:  6, 5, 4
    Onebody   basis highest AM E, G, H:  6, 5, 4
    Solid Harmonics ordering:            Gaussian

*** tstart() called on kichot
*** at Mon Jun 15 06:35:51 2026

   => Loading Basis Set <=

    Name: AUG-CC-PVQZ
    Role: ORBITAL
    Keyword: BASIS
    atoms 1 entry HE         line    72 file /opt/psi4/share/psi4/basis/aug-cc-pvqz.gbs 
    atoms 2 entry LI         line   105 file /opt/psi4/share/psi4/basis/aug-cc-pvqz.gbs 


         ---------------------------------------------------------
                                   SCF
               by Justin Turney, Rob Parrish, Andy Simmonett
                          and Daniel G. A. Smith
                              RHF Reference
                        1 Threads,   1907 MiB Core
         ---------------------------------------------------------

  ==> Geometry <==

    Molecular point group: c2v
    Full point group: C_inf_v

    Geometry (in Bohr), charge = 0, multiplicity = 1:

       Center              X                  Y                   Z               Mass       
    ------------   -----------------  -----------------  -----------------  -----------------
         HE           0.000000000000     0.000000000000    -6.617968087453     4.002603254130
      Gh(LI)          0.000000000000     0.000000000000     3.775525602565     7.016003436600

  Running in c2v symmetry.

  Rotational constants: A = ************  B =      0.21866  C =      0.21866 [cm^-1]
  Rotational constants: A = ************  B =   6555.20329  C =   6555.20329 [MHz]
  Nuclear repulsion =    0.000000000000000

  Charge       = 0
  Multiplicity = 1
  Electrons    = 2
  Nalpha       = 1
  Nbeta        = 1

  ==> Algorithm <==

  SCF Algorithm Type is DF.
  DIIS enabled.
  MOM disabled.
  Fractional occupation disabled.
  Guess Type is SAD.
  Energy threshold   = 1.00e-08
  Density threshold  = 1.00e-08
  Integral threshold = 1.00e-12

  ==> Primary Basis <==

  Basis Set: AUG-CC-PVQZ
    Blend: AUG-CC-PVQZ
    Number of shells: 34
    Number of basis functions: 126
    Number of Cartesian functions: 160
    Spherical Harmonics?: true
    Max angular momentum: 4

   => Loading Basis Set <=

    Name: (AUG-CC-PVQZ AUX)
    Role: JKFIT
    Keyword: DF_BASIS_SCF
    atoms 1 entry HE         line    34 file /opt/psi4/share/psi4/basis/def2-universal-jkfit.gbs 
    atoms 2 entry LI         line    54 file /opt/psi4/share/psi4/basis/def2-universal-jkfit.gbs 

  ==> Integral Setup <==

  DFHelper Memory: AOs need 0.011 GiB; user supplied 1.397 GiB. 
  SCF_SUBTYPE=INCORE selected. In-core MEM_DF algorithm will be used.
  Using in-core AOs.

  ==> MemDFJK: Density-Fitted J/K Matrices <==

    J tasked:                   Yes
    K tasked:                   Yes
    wK tasked:                   No
    OpenMP threads:               1
    Memory [MiB]:              1430
    Algorithm:                 Core
    Schwarz Cutoff:           1E-12
    Mask sparsity (%):       1.7007
    Fitting Condition:        1E-10

   => Auxiliary Basis Set <=

  Basis Set: (AUG-CC-PVQZ AUX)
    Blend: DEF2-UNIVERSAL-JKFIT
    Number of shells: 26
    Number of basis functions: 74
    Number of Cartesian functions: 85
    Spherical Harmonics?: true
    Max angular momentum: 3

  Minimum eigenvalue in the overlap matrix is 1.0366858895E-03.
  Reciprocal condition number of the overlap matrix is 2.4965897765E-04.
    Using symmetric orthogonalization.

  ==> Pre-Iterations <==

  SCF Guess: Superposition of Atomic Densities via on-the-fly atomic UHF (no occupation information).

   -------------------------
    Irrep   Nso     Nmo    
   -------------------------
     A1        50      50 
     A2        16      16 
     B1        30      30 
     B2        30      30 
   -------------------------
    Total     126     126
   -------------------------

  ==> Iterations <==

                           Total Energy        Delta E     RMS |[F,P]|

   @DF-RHF iter SAD:    -2.86154422537171   -2.86154e+00   0.00000e+00 
   @DF-RHF iter   1:    -2.86154464337945   -4.18008e-07   1.36972e-06 DIIS
   @DF-RHF iter   2:    -2.86154465150802   -8.12857e-09   2.15110e-07 DIIS
   @DF-RHF iter   3:    -2.86154465171407   -2.06050e-10   1.08564e-08 DIIS
   @DF-RHF iter   4:    -2.86154465171450   -4.25437e-13   8.55456e-10 DIIS
  Energy and wave function converged.


  ==> Post-Iterations <==

    Orbital Energies [Eh]
    ---------------------

    Doubly Occupied:                                                      

       1A1    -0.917937  

    Virtual:                                                              

       2A1     0.008642     1B2     0.015789     1B1     0.015789  
       3A1     0.017051     4A1     0.043137     2B2     0.058831  
       2B1     0.058831     5A1     0.059765     3B1     0.083673  
       3B2     0.083673     1A2     0.083882     6A1     0.083882  
       7A1     0.089239     8A1     0.135570     9A1     0.140920  
       4B1     0.167840     4B2     0.167840    10A1     0.168636  
       5B2     0.200912     5B1     0.200912     2A2     0.203209  
      11A1     0.203209     6B1     0.203250     6B2     0.203250  
      12A1     0.213463     7B1     0.268576     7B2     0.268576  
      13A1     0.269195     3A2     0.269195    14A1     0.277223  
       8B1     0.363940     8B2     0.363940    15A1     0.368434  
      16A1     0.409029     9B1     0.468617     9B2     0.468617  
      17A1     0.473871     4A2     0.535367    18A1     0.535367  
      10B1     0.535386    10B2     0.535386     5A2     0.535390  
      19A1     0.535390    11B2     0.536812    11B1     0.536812  
      20A1     0.553986    21A1     0.582162     6A2     0.582162  
      12B2     0.582188    12B1     0.582188    13B2     0.585912  
      13B1     0.585912    22A1     0.620429     7A2     0.697303  
      23A1     0.697303    14B2     0.697795    14B1     0.697795  
      24A1     0.699492    25A1     0.725091    26A1     1.150556  
       8A2     1.150556    15B2     1.155764    15B1     1.155764  
      27A1     1.164577    16B1     1.421175    16B2     1.421175  
      17B2     1.421897    17B1     1.421897    28A1     1.421991  
       9A2     1.421991    29A1     1.434008    30A1     1.464516  
      18B1     1.484683    18B2     1.484683    31A1     1.487778  
      10A2     1.508937    32A1     1.508937    19B1     1.508940  
      19B2     1.508940    33A1     1.508952    11A2     1.508952  
      20B1     1.516573    20B2     1.516573    34A1     1.588944  
      12A2     1.755265    35A1     1.755265    21B1     1.755688  
      21B2     1.755688    36A1     1.762955    22B1     1.820375  
      22B2     1.820375    37A1     1.826314    38A1     2.987459  
      23B1     3.017229    23B2     3.017229    39A1     3.017299  
      13A2     3.017299    24B2     3.017740    24B1     3.017740  
      40A1     3.018513    14A2     4.588436    41A1     4.588436  
      25B1     4.591632    25B2     4.591632    42A1     4.597461  
      26B1     5.139104    26B2     5.139104    43A1     5.188774  
      44A1    10.213234    27B1    12.577071    27B2    12.577071  
      45A1    12.577089    15A2    12.577089    28B2    12.577219  
      28B1    12.577219    46A1    12.577428    47A1    13.652383  
      16A2    16.645566    48A1    16.645566    29B1    16.647298  
      29B2    16.647298    49A1    16.650511    30B2    18.098545  
      30B1    18.098545    50A1    18.135013  

    Final Occupation by Irrep:
             A1    A2    B1    B2 
    DOCC [     1,    0,    0,    0 ]
    NA   [     1,    0,    0,    0 ]
    NB   [     1,    0,    0,    0 ]

  @DF-RHF Final Energy:    -2.86154465171450

   => Energetics <=

    Nuclear Repulsion Energy =              0.0000000000000000
    One-Electron Energy =                  -3.8872145829395430
    Two-Electron Energy =                   1.0256699312250459
    Total Energy =                         -2.8615446517144969

Computation Completed


Properties will be evaluated at   0.000000,   0.000000,   0.000000 [a0]

Properties computed using the SCF density matrix


 Multipole Moments:

 ------------------------------------------------------------------------------------
     Multipole            Electronic (a.u.)      Nuclear  (a.u.)        Total (a.u.)
 ------------------------------------------------------------------------------------

 L = 1.  Multiply by 2.5417464519 to convert [e a0] to [Debye]
 Dipole X            :          0.0000000            0.0000000            0.0000000
 Dipole Y            :          0.0000000            0.0000000            0.0000000
 Dipole Z            :         13.2359287          -13.2359362           -0.0000075
 Magnitude           :                                                    0.0000075

 ------------------------------------------------------------------------------------

*** tstop() called on kichot at Mon Jun 15 06:35:52 2026
Module time:
	user time   =       0.34 seconds =       0.01 minutes
	system time =       0.02 seconds =       0.00 minutes
	total time  =          1 seconds =       0.02 minutes
Total time:
	user time   =      13.07 seconds =       0.22 minutes
	system time =       0.36 seconds =       0.01 minutes
	total time  =         14 seconds =       0.23 minutes

*** tstart() called on kichot
*** at Mon Jun 15 06:35:52 2026


  //>>>>>>>>>>>>>>>>>>>>>>>>>>>>>>>>>>>//
  //               DFMP2               //
  //<<<<<<<<<<<<<<<<<<<<<<<<<<<<<<<<<<<//

   => Loading Basis Set <=

    Name: (AUG-CC-PVQZ AUX)
    Role: RIFIT
    Keyword: DF_BASIS_MP2
    atoms 1 entry HE         line    72 file /opt/psi4/share/psi4/basis/aug-cc-pvqz-ri.gbs 
    atoms 2 entry LI         line    90 file /opt/psi4/share/psi4/basis/def2-qzvpp-ri.gbs 

	 --------------------------------------------------------
	                          DF-MP2                         
	      2nd-Order Density-Fitted Moller-Plesset Theory     
	              RMP2 Wavefunction,   1 Threads             
	                                                         
	        Rob Parrish, Justin Turney, Andy Simmonett,      
	           Ed Hohenstein, and C. David Sherrill          
	 --------------------------------------------------------

   => Auxiliary Basis Set <=

  Basis Set: (AUG-CC-PVQZ AUX)
    Blend: AUG-CC-PVQZ-RI + DEF2-QZVPP-RI
    Number of shells: 45
    Number of basis functions: 163
    Number of Cartesian functions: 205
    Spherical Harmonics?: true
    Max angular momentum: 4

	 --------------------------------------------------------
	                 NBF =   126, NAUX =   163
	 --------------------------------------------------------
	   CLASS    FOCC     OCC    AOCC    AVIR     VIR    FVIR
	   PAIRS       0       1       1     125     125       0
	 --------------------------------------------------------

	-----------------------------------------------------------
	 ==================> DF-MP2 Energies <==================== 
	-----------------------------------------------------------
	 Reference Energy          =      -2.8615446517144969 [Eh]
	 Singles Energy            =      -0.0000000000000000 [Eh]
	 Same-Spin Energy          =      -0.0000000000000000 [Eh]
	 Opposite-Spin Energy      =      -0.0357117847709217 [Eh]
	 Correlation Energy        =      -0.0357117847709217 [Eh]
	 Total Energy              =      -2.8972564364854185 [Eh]
	-----------------------------------------------------------
	 ================> DF-SCS-MP2 Energies <================== 
	-----------------------------------------------------------
	 SCS Same-Spin Scale       =       0.3333333333333333 [-]
	 SCS Opposite-Spin Scale   =       1.2000000000000000 [-]
	 SCS Same-Spin Energy      =      -0.0000000000000000 [Eh]
	 SCS Opposite-Spin Energy  =      -0.0428541417251060 [Eh]
	 SCS Correlation Energy    =      -0.0428541417251060 [Eh]
	 SCS Total Energy          =      -2.9043987934396029 [Eh]
	-----------------------------------------------------------


*** tstop() called on kichot at Mon Jun 15 06:35:52 2026
Module time:
	user time   =       0.10 seconds =       0.00 minutes
	system time =       0.00 seconds =       0.00 minutes
	total time  =          0 seconds =       0.00 minutes
Total time:
	user time   =      13.17 seconds =       0.22 minutes
	system time =       0.36 seconds =       0.01 minutes
	total time  =         14 seconds =       0.23 minutes

    Psi4 stopped on: Monday, 15 June 2026 06:35AM
    Psi4 wall time for execution: 0:00:00.48


    -----------------------------------------------------------------------
          Psi4: An Open-Source Ab Initio Electronic Structure Package
                               Psi4 1.11a1.dev42 

                         Git: Rev {master} 144882d 


    D. G. A. Smith, L. A. Burns, A. C. Simmonett, R. M. Parrish,
    M. C. Schieber, R. Galvelis, P. Kraus, H. Kruse, R. Di Remigio,
    A. Alenaizan, A. M. James, S. Lehtola, J. P. Misiewicz, M. Scheurer,
    R. A. Shaw, J. B. Schriber, Y. Xie, Z. L. Glick, D. A. Sirianni,
    J. S. O'Brien, J. M. Waldrop, A. Kumar, E. G. Hohenstein,
    B. P. Pritchard, B. R. Brooks, H. F. Schaefer III, A. Yu. Sokolov,
    K. Patkowski, A. E. DePrince III, U. Bozkaya, R. A. King,
    F. A. Evangelista, J. M. Turney, T. D. Crawford, C. D. Sherrill,
    J. Chem. Phys. 152(18) 184108 (2020). https://doi.org/10.1063/5.0006002

                            Additional Code Authors
    E. T. Seidl, C. L. Janssen, E. F. Valeev, M. L. Leininger,
    J. F. Gonthier, R. M. Richard, H. R. McAlexander, M. Saitow, X. Wang,
    P. Verma, M. H. Lechner, A. Jiang, S. Behnle, A. G. Heide,
    M. F. Herbst, D. L. Poole, T. Győri, E. C. Mitchell, J. P. Pederson,
    and A. M. Wallace

             Previous Authors, Complete List of Code Contributors,
                       and Citations for Specific Modules
    https://github.com/psi4/psi4/blob/master/codemeta.json
    https://github.com/psi4/psi4/graphs/contributors
    https://psicode.org/psi4manual/master/introduction.html#citing-psifour

    -----------------------------------------------------------------------


    Psi4 started on: Monday, 15 June 2026 06:35AM

    Process ID: 215698
    Host:       kichot
    PSIDATADIR: /opt/psi4/share/psi4
    Memory:     1.9 GiB
    Threads:    1
    Addons:     a̶d̶c̶c̶, a̶m̶b̶i̶t̶, b̶s̶e̶, c̶c̶t̶3̶, c̶f̶o̶u̶r̶, c̶h̶e̶m̶p̶s̶2̶, c̶p̶p̶e̶, d̶d̶x̶,
                d̶f̶t̶d̶3̶, d̶f̶t̶d̶4̶, d̶k̶h̶, e̶c̶p̶i̶n̶t̶, e̶i̶n̶s̶u̶m̶s̶, f̶o̶r̶t̶e̶,
                g̶a̶u̶x̶c̶, g̶c̶p̶, g̶d̶m̶a̶, g̶e̶o̶m̶e̶t̶r̶i̶c̶, g̶p̶u̶_̶d̶f̶c̶c̶,
                i̶n̶t̶e̶g̶r̶a̶t̶o̶r̶x̶x̶, i̶p̶i̶, l̶i̶b̶e̶f̶p̶, m̶d̶i̶, m̶p̶2̶d̶, m̶r̶c̶c̶,
                o̶o̶o̶, o̶p̶e̶n̶f̶e̶r̶m̶i̶o̶n̶p̶s̶i̶4̶, p̶c̶m̶s̶o̶l̶v̶e̶r̶,
                p̶s̶i̶4̶f̶o̶c̶k̶c̶i̶, p̶s̶i̶x̶a̶s̶, p̶y̶e̶i̶n̶s̶u̶m̶s̶, r̶e̶s̶p̶, s̶i̶m̶i̶n̶t̶,
                s̶n̶s̶m̶p̶2̶, v̶2̶r̶d̶m̶_̶c̶a̶s̶s̶c̶f̶

  ==> Input QCSchema <==

--------------------------------------------------------------------------
{'driver': 'energy',
 'extras': {'psiapi': True, 'wfn_qcvars_only': True},
 'id': None,
 'keywords': {'function_kwargs': {}},
 'model': {'basis': 'aug-cc-pvqz', 'method': 'mp2'},
 'molecule': {'atom_labels': ['', ''],
              'atomic_numbers': [2, 3],
              'extras': {},
              'fix_com': True,
              'fix_orientation': True,
              'fragment_charges': [0.0, 1.0],
              'fragment_multiplicities': [1, 1],
              'fragments': [[0], [1]],
              'geometry': [0.0, 0.0, -6.617968087453, 0.0, 0.0, 3.7755256025651],
              'mass_numbers': [4, 7],
              'masses': [4.00260325413, 7.0160034366],
              'molecular_charge': 1.0,
              'molecular_multiplicity': 1,
              'name': 'He-Li+ ([0, 1],[])',
              'provenance': {'creator': 'QCElemental',
                             'routine': 'qcelemental.molparse.from_schema',
                             'version': '0.29.0'},
              'real': [True, True],
              'schema_name': 'qcschema_molecule',
              'schema_version': 2,
              'symbols': ['He', 'Li'],
              'validated': True},
 'protocols': {'stdout': True},
 'provenance': {'creator': 'QCElemental', 'routine': 'qcelemental.models.results', 'version': '0.29.0'},
 'schema_name': 'qcschema_input',
 'schema_version': 1}
--------------------------------------------------------------------------

Scratch directory: /scratch/lukasz/psi4/
    SCF Algorithm Type (re)set to DF.
   => Libint2 <=

    Primary   basis highest AM E, G, H:  5, 4, 3
    Auxiliary basis highest AM E, G, H:  6, 5, 4
    Onebody   basis highest AM E, G, H:  6, 5, 4
    Solid Harmonics ordering:            Gaussian

*** tstart() called on kichot
*** at Mon Jun 15 06:35:52 2026

   => Loading Basis Set <=

    Name: AUG-CC-PVQZ
    Role: ORBITAL
    Keyword: BASIS
    atoms 1 entry HE         line    72 file /opt/psi4/share/psi4/basis/aug-cc-pvqz.gbs 
    atoms 2 entry LI         line   105 file /opt/psi4/share/psi4/basis/aug-cc-pvqz.gbs 


         ---------------------------------------------------------
                                   SCF
               by Justin Turney, Rob Parrish, Andy Simmonett
                          and Daniel G. A. Smith
                              RHF Reference
                        1 Threads,   1907 MiB Core
         ---------------------------------------------------------

  ==> Geometry <==

    Molecular point group: c2v
    Full point group: C_inf_v

    Geometry (in Bohr), charge = 1, multiplicity = 1:

       Center              X                  Y                   Z               Mass       
    ------------   -----------------  -----------------  -----------------  -----------------
         HE           0.000000000000     0.000000000000    -6.617968087453     4.002603254130
         LI           0.000000000000     0.000000000000     3.775525602565     7.016003436600

  Running in c2v symmetry.

  Rotational constants: A = ************  B =      0.21866  C =      0.21866 [cm^-1]
  Rotational constants: A = ************  B =   6555.20329  C =   6555.20329 [MHz]
  Nuclear repulsion =    0.577284229821816

  Charge       = 1
  Multiplicity = 1
  Electrons    = 4
  Nalpha       = 2
  Nbeta        = 2

  ==> Algorithm <==

  SCF Algorithm Type is DF.
  DIIS enabled.
  MOM disabled.
  Fractional occupation disabled.
  Guess Type is SAD.
  Energy threshold   = 1.00e-08
  Density threshold  = 1.00e-08
  Integral threshold = 1.00e-12

  ==> Primary Basis <==

  Basis Set: AUG-CC-PVQZ
    Blend: AUG-CC-PVQZ
    Number of shells: 34
    Number of basis functions: 126
    Number of Cartesian functions: 160
    Spherical Harmonics?: true
    Max angular momentum: 4

   => Loading Basis Set <=

    Name: (AUG-CC-PVQZ AUX)
    Role: JKFIT
    Keyword: DF_BASIS_SCF
    atoms 1 entry HE         line    34 file /opt/psi4/share/psi4/basis/def2-universal-jkfit.gbs 
    atoms 2 entry LI         line    54 file /opt/psi4/share/psi4/basis/def2-universal-jkfit.gbs 

  ==> Integral Setup <==

  DFHelper Memory: AOs need 0.011 GiB; user supplied 1.397 GiB. 
  SCF_SUBTYPE=INCORE selected. In-core MEM_DF algorithm will be used.
  Using in-core AOs.

  ==> MemDFJK: Density-Fitted J/K Matrices <==

    J tasked:                   Yes
    K tasked:                   Yes
    wK tasked:                   No
    OpenMP threads:               1
    Memory [MiB]:              1430
    Algorithm:                 Core
    Schwarz Cutoff:           1E-12
    Mask sparsity (%):       1.7007
    Fitting Condition:        1E-10

   => Auxiliary Basis Set <=

  Basis Set: (AUG-CC-PVQZ AUX)
    Blend: DEF2-UNIVERSAL-JKFIT
    Number of shells: 26
    Number of basis functions: 74
    Number of Cartesian functions: 85
    Spherical Harmonics?: true
    Max angular momentum: 3

  Minimum eigenvalue in the overlap matrix is 1.0366858895E-03.
  Reciprocal condition number of the overlap matrix is 2.4965897765E-04.
    Using symmetric orthogonalization.

  ==> Pre-Iterations <==

  SCF Guess: Superposition of Atomic Densities via on-the-fly atomic UHF (no occupation information).

   -------------------------
    Irrep   Nso     Nmo    
   -------------------------
     A1        50      50 
     A2        16      16 
     B1        30      30 
     B2        30      30 
   -------------------------
    Total     126     126
   -------------------------

  ==> Iterations <==

                           Total Energy        Delta E     RMS |[F,P]|

   @DF-RHF iter SAD:   -10.15362705841873   -1.01536e+01   0.00000e+00 
   @DF-RHF iter   1:   -10.09787439255454    5.57527e-02   1.63853e-04 ADIIS/DIIS
   @DF-RHF iter   2:   -10.09798237183624   -1.07979e-04   3.87009e-05 DIIS
   @DF-RHF iter   3:   -10.09798896180522   -6.58997e-06   2.83549e-06 DIIS
   @DF-RHF iter   4:   -10.09798899304058   -3.12354e-08   2.39478e-07 DIIS
   @DF-RHF iter   5:   -10.09798899327514   -2.34563e-10   1.87047e-08 DIIS
   @DF-RHF iter   6:   -10.09798899327668   -1.53833e-12   6.83824e-10 DIIS
  Energy and wave function converged.


  ==> Post-Iterations <==

    Orbital Energies [Eh]
    ---------------------

    Doubly Occupied:                                                      

       1A1    -2.792238     2A1    -1.014210  

    Virtual:                                                              

       3A1    -0.196158     1B2    -0.128521     1B1    -0.128521  
       4A1    -0.128132     5A1    -0.072772     2B2    -0.056700  
       2B1    -0.056700     6A1    -0.055366     3B2    -0.046227  
       3B1    -0.046227     1A2    -0.046124     7A1    -0.046124  
       8A1    -0.041659     9A1    -0.021817     4B2    -0.014356  
       4B1    -0.014356    10A1    -0.013681    11A1     0.040839  
       5B1     0.053773     5B2     0.053773    12A1     0.054836  
       2A2     0.054836     6B2     0.054855     6B1     0.054855  
      13A1     0.067014     7B1     0.074931     7B2     0.074931  
      14A1     0.075135     3A2     0.075135    15A1     0.094808  
       8B2     0.134305     8B1     0.134305    16A1     0.134864  
      17A1     0.169468     9B2     0.262182     9B1     0.262182  
      18A1     0.280609     4A2     0.340359    19A1     0.340359  
      20A1     0.340368     5A2     0.340368    10B2     0.340370  
      10B1     0.340370    11B2     0.342562    11B1     0.342562  
      21A1     0.351901     6A2     0.357560    22A1     0.357560  
      12B2     0.357563    12B1     0.357563    13B1     0.365188  
      13B2     0.365188    23A1     0.403176     7A2     0.403176  
      14B1     0.404175    14B2     0.404175    24A1     0.410398  
      25A1     0.428202    26A1     0.629456    27A1     0.841413  
      15B1     0.841472    15B2     0.841472    16B2     1.045147  
      16B1     1.045147     8A2     1.053090    28A1     1.053090  
      29A1     1.060789    17B1     1.061601    17B2     1.061601  
       9A2     1.064224    30A1     1.064224    18B2     1.076694  
      18B1     1.076694    31A1     1.078222    32A1     1.190033  
      10A2     1.190033    19B2     1.190044    19B1     1.190044  
      33A1     1.190083    11A2     1.190083    20B1     1.190995  
      20B2     1.190995    34A1     1.199211    35A1     1.245817  
      12A2     1.245817    21B1     1.246023    21B2     1.246023  
      36A1     1.253147    22B2     1.393787    22B1     1.393787  
      37A1     1.467222    38A1     2.730129    39A1     2.891959  
      23B2     2.920934    23B1     2.920934    40A1     2.921109  
      13A2     2.921109    41A1     2.921520    24B1     2.921947  
      24B2     2.921947    42A1     4.492651    14A2     4.492651  
      25B2     4.495106    25B1     4.495106    43A1     4.500441  
      26B1     5.043133    26B2     5.043133    44A1     5.091785  
      27B1    12.480794    27B2    12.480794    45A1    12.480818  
      15A2    12.480818    46A1    12.480944    28B1    12.481043  
      28B2    12.481043    47A1    13.556221    48A1    16.549413  
      16A2    16.549413    29B1    16.550934    29B2    16.550934  
      49A1    16.554038    30B2    18.002331    30B1    18.002331  
      50A1    18.038515  

    Final Occupation by Irrep:
             A1    A2    B1    B2 
    DOCC [     2,    0,    0,    0 ]
    NA   [     2,    0,    0,    0 ]
    NB   [     2,    0,    0,    0 ]

  @DF-RHF Final Energy:   -10.09798899327668

   => Energetics <=

    Nuclear Repulsion Energy =              0.5772842298218156
    One-Electron Energy =                 -13.7376487000419001
    Two-Electron Energy =                   3.0623754769434077
    Total Energy =                        -10.0979889932766760

Computation Completed


Properties will be evaluated at   0.000000,   0.000000,   0.000000 [a0]

Properties computed using the SCF density matrix


 Multipole Moments:

 ------------------------------------------------------------------------------------
     Multipole            Electronic (a.u.)      Nuclear  (a.u.)        Total (a.u.)
 ------------------------------------------------------------------------------------

 L = 1.  Multiply by 2.5417464519 to convert [e a0] to [Debye]
 Dipole X            :          0.0000000            0.0000000            0.0000000
 Dipole Y            :          0.0000000            0.0000000            0.0000000
 Dipole Z            :          5.6725362           -1.9093594            3.7631768
 Magnitude           :                                                    3.7631768

 ------------------------------------------------------------------------------------

*** tstop() called on kichot at Mon Jun 15 06:35:52 2026
Module time:
	user time   =       0.49 seconds =       0.01 minutes
	system time =       0.03 seconds =       0.00 minutes
	total time  =          0 seconds =       0.00 minutes
Total time:
	user time   =      13.70 seconds =       0.23 minutes
	system time =       0.39 seconds =       0.01 minutes
	total time  =         14 seconds =       0.23 minutes

*** tstart() called on kichot
*** at Mon Jun 15 06:35:52 2026


  //>>>>>>>>>>>>>>>>>>>>>>>>>>>>>>>>>>>//
  //               DFMP2               //
  //<<<<<<<<<<<<<<<<<<<<<<<<<<<<<<<<<<<//

   => Loading Basis Set <=

    Name: (AUG-CC-PVQZ AUX)
    Role: RIFIT
    Keyword: DF_BASIS_MP2
    atoms 1 entry HE         line    72 file /opt/psi4/share/psi4/basis/aug-cc-pvqz-ri.gbs 
    atoms 2 entry LI         line    90 file /opt/psi4/share/psi4/basis/def2-qzvpp-ri.gbs 

	 --------------------------------------------------------
	                          DF-MP2                         
	      2nd-Order Density-Fitted Moller-Plesset Theory     
	              RMP2 Wavefunction,   1 Threads             
	                                                         
	        Rob Parrish, Justin Turney, Andy Simmonett,      
	           Ed Hohenstein, and C. David Sherrill          
	 --------------------------------------------------------

   => Auxiliary Basis Set <=

  Basis Set: (AUG-CC-PVQZ AUX)
    Blend: AUG-CC-PVQZ-RI + DEF2-QZVPP-RI
    Number of shells: 45
    Number of basis functions: 163
    Number of Cartesian functions: 205
    Spherical Harmonics?: true
    Max angular momentum: 4

	 --------------------------------------------------------
	                 NBF =   126, NAUX =   163
	 --------------------------------------------------------
	   CLASS    FOCC     OCC    AOCC    AVIR     VIR    FVIR
	   PAIRS       0       2       2     124     124       0
	 --------------------------------------------------------

	-----------------------------------------------------------
	 ==================> DF-MP2 Energies <==================== 
	-----------------------------------------------------------
	 Reference Energy          =     -10.0979889932766760 [Eh]
	 Singles Energy            =      -0.0000000000000000 [Eh]
	 Same-Spin Energy          =      -0.0000000976528754 [Eh]
	 Opposite-Spin Energy      =      -0.0496496270329196 [Eh]
	 Correlation Energy        =      -0.0496497246857950 [Eh]
	 Total Energy              =     -10.1476387179624705 [Eh]
	-----------------------------------------------------------
	 ================> DF-SCS-MP2 Energies <================== 
	-----------------------------------------------------------
	 SCS Same-Spin Scale       =       0.3333333333333333 [-]
	 SCS Opposite-Spin Scale   =       1.2000000000000000 [-]
	 SCS Same-Spin Energy      =      -0.0000000325509585 [Eh]
	 SCS Opposite-Spin Energy  =      -0.0595795524395035 [Eh]
	 SCS Correlation Energy    =      -0.0595795849904620 [Eh]
	 SCS Total Energy          =     -10.1575685782671385 [Eh]
	-----------------------------------------------------------


*** tstop() called on kichot at Mon Jun 15 06:35:53 2026
Module time:
	user time   =       0.10 seconds =       0.00 minutes
	system time =       0.01 seconds =       0.00 minutes
	total time  =          1 seconds =       0.02 minutes
Total time:
	user time   =      13.80 seconds =       0.23 minutes
	system time =       0.40 seconds =       0.01 minutes
	total time  =         15 seconds =       0.25 minutes

    Psi4 stopped on: Monday, 15 June 2026 06:35AM
    Psi4 wall time for execution: 0:00:00.66


  //>>>>>>>>>>>>>>>>>>>>>>>>>>>>>>>>>>>//
  //          ManyBody Results         //
  //<<<<<<<<<<<<<<<<<<<<<<<<<<<<<<<<<<<//


   ==> N-Body: Counterpoise Corrected (CP) energies <==

              MC n-Body  Total Energy            Interaction Energy                          N-body Contribution to Interaction Energy
                         [Eh]                    [Eh]                  [kcal/mol]            [Eh]                  [kcal/mol]
              §A  1        N/A                   0.000000000000        0.000000000000        0.000000000000        0.000000000000
     FULL/RTN §A  2        N/A                  -0.000059878883       -0.037574566486       -0.000059878883       -0.037574566486

   MC Legend: §A: "(auto)"

